LAMMPS (22 Dec 2022)
# LAMMPS input file
# Bulk TIP4P/2005 water system
# author : Simon Gravelle

# variables
variable pre equal 1 # desired pressure (Atm)
variable tem equal 293.15 # desired temperature (K)

# main parameters
units real # style of units (A, fs, Kcal/mol)
atom_style full # molecular + charge
bond_style harmonic
angle_style harmonic
boundary p p p # periodic boundary conditions
pair_style lj/cut/tip4p/long 1 2 1 1 0.105 10 # cut-off 1 nm
kspace_style pppm/tip4p 1.0e-5
pair_modify mix arithmetic tail yes # eij = sqrt(ei*ej), dij = 0.5*(di+dj)

# import positions and parameters
read_data conf.data
Reading data file ...
  orthogonal box = (-10.370135 -10.370135 -10.370135) to (10.370135 10.370135 10.370135)
  2 by 2 by 2 MPI processor grid
  reading atoms ...
  900 atoms
  reading velocities ...
  900 velocities
  scanning bonds ...
  2 = max bonds/atom
  scanning angles ...
  1 = max angles/atom
  reading bonds ...
  600 bonds
  reading angles ...
  300 angles
Finding 1-2 1-3 1-4 neighbors ...
  special bond factors lj:    0        0        0       
  special bond factors coul:  0        0        0       
     2 = max # of 1-2 neighbors
     1 = max # of 1-3 neighbors
     1 = max # of 1-4 neighbors
     2 = max # of special neighbors
  special bonds CPU = 0.000 seconds
  read_data CPU = 0.008 seconds
include PARM.lammps
# TIP4P/2005 rigid water model parameters

# mass parameters
mass 1 15.9994 # O water TIP4P/2005
mass 2 1.008 # H water TIP4P/2005

# pair coeffs
pair_coeff 1 1 0.18481 3.165 # TIP4P/2005
pair_coeff 2 2 0.0 0.0 # TIP4P/2005

# bond coeffs
bond_coeff 1 0 0.9572 # TIP4P/2005

# angle coeffs
angle_coeff 1 0 104.52 # TIP4P/2005

# groups
group wat type 1 2 # water
900 atoms in group wat
group hyd type 2 # hydrogen
600 atoms in group hyd

# dynamics
timestep 2 # (fs)
fix myshk wat shake 1.0e-5 200 0 b 1 a 1 # shake with increased precision
Finding SHAKE clusters ...
       0 = # of size 2 clusters
       0 = # of size 3 clusters
       0 = # of size 4 clusters
     300 = # of frozen angles
  find clusters CPU = 0.000 seconds
fix mynpt all npt temp ${tem} ${tem} 100 iso ${pre} ${pre} 1000 # npt equilibrium
fix mynpt all npt temp 293.15 ${tem} 100 iso ${pre} ${pre} 1000 
fix mynpt all npt temp 293.15 293.15 100 iso ${pre} ${pre} 1000 
fix mynpt all npt temp 293.15 293.15 100 iso 1 ${pre} 1000 
fix mynpt all npt temp 293.15 293.15 100 iso 1 1 1000 

# output
dump dp1 wat xtc 500 traj.xtc # print atom positions every 1 timestep
thermo 1000

# run
run 500000 # 1 ns
PPPM initialization ...
  extracting TIP4P info from pair style
  using 12-bit tables for long-range coulomb (../kspace.cpp:342)
  G vector (1/distance) = 0.31250113
  grid = 20 20 20
  stencil order = 5
  estimated absolute RMS force accuracy = 0.0030044428
  estimated relative force accuracy = 9.0477902e-06
  using double precision KISS FFT
  3d grid and FFT values/proc = 4913 1200
WARNING: Communication cutoff 0 is shorter than a bond length based estimate of 3.4358. This may lead to errors. (../comm.cpp:723)
WARNING: Increasing communication cutoff to 13.0622 for TIP4P pair style (../pair_lj_cut_tip4p_long.cpp:484)
Generated 1 of 1 mixed pair_coeff terms from arithmetic mixing rule
Neighbor list info ...
  update: every = 1 steps, delay = 0 steps, check = yes
  max neighbors/atom: 2000, page size: 100000
  master list distance cutoff = 12.21
  ghost atom cutoff = 13.0622
  binsize = 6.105, bins = 4 4 4
  1 neighbor lists, perpetual/occasional/extra = 1 0 0
  (1) pair lj/cut/tip4p/long, perpetual
      attributes: half, newton on
      pair build: half/bin/newton
      stencil: half/bin/3d
      bin: standard
Per MPI rank memory allocation (min/avg/max) = 8.594 | 8.604 | 8.614 Mbytes
   Step          Temp          E_pair         E_mol          TotEng         Press          Volume    
         0   293.25385     -3553.3905      0             -3029.7842     -1294.3343      8921.6098    
      1000   295.03379     -3559.3798      0             -3032.5955     -742.31827      8845.3502    
      2000   291.7929      -3589.2575      0             -3068.2597      1028.2118      9030.7118    
      3000   303.8235      -3589.1665      0             -3046.6881      1242.3778      8785.6596    
      4000   292.45588     -3577.82        0             -3055.6385      346.54537      8871.2138    
      5000   301.23895     -3595.9569      0             -3058.0932     -338.71246      9142.1827    
      6000   298.77767     -3556.9251      0             -3023.456      -364.33548      9183.8332    
      7000   305.79107     -3564.2164      0             -3018.2249     -725.55389      9186.169     
      8000   292.46055     -3617.2238      0             -3095.0339      670.99029      9058.7228    
      9000   296.42428     -3601.7918      0             -3072.5247      336.23811      9011.9084    
     10000   318.79573     -3590.1957      0             -3020.9843      1281.3068      8990.6026    
     11000   299.17635     -3553.9362      0             -3019.7553     -509.4227       9078.3474    
     12000   292.51974     -3558.0105      0             -3035.715      -422.5007       9157.1772    
     13000   292.15555     -3607.925       0             -3086.2797     -426.05532      9076.0577    
     14000   291.90142     -3532.4814      0             -3011.2899      1657.0508      9103.7935    
     15000   276.25867     -3610.9602      0             -3117.6989      1127.2258      8910.0829    
     16000   301.37937     -3598.0994      0             -3059.9849      269.04902      9128.1196    
     17000   284.75681     -3546.6348      0             -3038.2         776.17649      8988.3409    
     18000   303.89542     -3632.5486      0             -3089.9417      330.62947      9234.2629    
     19000   286.87399     -3607.5849      0             -3095.3699      1367.0086      8943.7279    
     20000   299.23089     -3615.9137      0             -3081.6354     -228.51596      9196.7769    
     21000   287.60717     -3571.9721      0             -3058.448       1933.4653      8962.4575    
     22000   302.78841     -3557.2315      0             -3016.6013     -832.37234      9078.1854    
     23000   297.63812     -3574.0824      0             -3042.648      -823.64047      8992.3901    
     24000   294.61588     -3549.2136      0             -3023.1754      706.70773      8764.9589    
     25000   285.04735     -3594.5231      0             -3085.5696      30.365661      8922.7132    
     26000   287.48427     -3596.4585      0             -3083.1538     -340.23557      8953.7589    
     27000   284.99999     -3566.1768      0             -3057.3078      316.38923      8950.1478    
     28000   282.52922     -3603.552       0             -3099.0946      308.82105      9052.8329    
     29000   281.63383     -3599.2949      0             -3096.4362     -470.08219      9055.2584    
     30000   287.76751     -3616.9138      0             -3103.1034     -907.3454       9144.7699    
     31000   287.89964     -3582.061       0             -3068.0147      1178.9327      9212.8603    
     32000   276.60807     -3602.3389      0             -3108.4538     -690.09989      9058.7203    
     33000   290.85594     -3533.9807      0             -3014.6559     -1861.6472      9051.6158    
     34000   293.57132     -3548.5356      0             -3024.3625     -146.50215      9101.5971    
     35000   301.89019     -3584.8535      0             -3045.827       1133.5935      8872.2869    
     36000   298.92673     -3561.4008      0             -3027.6656     -696.63383      9173.0298    
     37000   290.11027     -3615.3843      0             -3097.3909      1130.9942      8866.1311    
     38000   280.61806     -3600.9412      0             -3099.8962     -1122.6522      9130.4196    
     39000   303.12457     -3603.8366      0             -3062.6061      629.92653      9090.0757    
     40000   298.22569     -3632.1111      0             -3099.6276      719.84614      9111.0243    
     41000   312.82182     -3554.3751      0             -2995.8301     -463.62952      8978.0742    
     42000   285.45099     -3610.0641      0             -3100.3898     -504.0894       9075.1368    
     43000   302.95644     -3574.1863      0             -3033.256       399.17491      9044.7175    
     44000   286.76847     -3518.4975      0             -3006.4709     -912.00967      8875.1332    
     45000   320.11265     -3578.1138      0             -3006.551      -379.06455      9132.9193    
     46000   307.2053      -3603.5422      0             -3055.0255      816.4551       8951.0287    
     47000   304.12716     -3616.4955      0             -3073.4749      525.00755      9019.6391    
     48000   289.37902     -3562.153       0             -3045.4653     -965.46474      9011.817     
     49000   295.6698      -3606.7168      0             -3078.7968     -1015.8842      9096.7631    
     50000   296.49623     -3570.4421      0             -3041.0465     -467.26956      8937.319     
     51000   293.49548     -3596.8238      0             -3072.786      -140.43828      9132.6797    
     52000   281.29956     -3572.6598      0             -3070.398      -206.20619      8931.8122    
     53000   294.66792     -3603.0658      0             -3076.9347      77.524173      9047.4468    
     54000   279.56058     -3563.0111      0             -3063.8542     -416.74875      8889.8303    
     55000   313.93429     -3567.0668      0             -3006.5355      626.55582      9022.122     
     56000   279.14085     -3589.1476      0             -3090.7401      353.62844      8945.4406    
     57000   298.37807     -3640.6181      0             -3107.8625      224.24644      8962.297     
     58000   277.46005     -3598.0516      0             -3102.6452     -445.1888       9093.3197    
     59000   294.70407     -3608.4728      0             -3082.2771     -497.73563      8975.0097    
     60000   309.38654     -3568.6923      0             -3016.281      -352.75322      9107.8903    
     61000   295.2713      -3588.8502      0             -3061.6418      530.80835      8781.9902    
     62000   286.21924     -3625.189       0             -3114.143       540.3966       8892.4614    
     63000   281.37294     -3609.994       0             -3107.6011      402.67366      8884.4775    
     64000   316.37114     -3602.3947      0             -3037.5124     -72.662243      8867.5167    
     65000   283.09814     -3575.5091      0             -3070.0359      297.91399      8731.5204    
     66000   299.0109      -3555.7758      0             -3021.8902      913.13188      8974.7758    
     67000   297.07293     -3603.9863      0             -3073.561       122.63624      9050.0228    
     68000   282.11408     -3593.0792      0             -3089.3631     -665.06589      9093.9229    
     69000   288.54743     -3591.0068      0             -3075.8038     -1102.7965      9042.7523    
     70000   280.6475      -3629.2737      0             -3128.1762     -850.14209      9012.4005    
     71000   293.21826     -3565.2743      0             -3041.7316     -981.06672      9254.1724    
     72000   286.54294     -3604.6195      0             -3092.9956     -344.1476       9193.5155    
     73000   281.53715     -3592.639       0             -3089.953       571.59516      8893.3657    
     74000   283.10845     -3561.7533      0             -3056.2617     -193.48408      9085.1469    
     75000   277.26261     -3532.9063      0             -3037.8525     -483.68516      8979.8264    
     76000   276.33194     -3570.2915      0             -3076.8994     -61.426467      8980.0785    
     77000   294.89362     -3535.0278      0             -3008.4937      267.26478      9045.1629    
     78000   296.39648     -3639.8449      0             -3110.6274      621.27233      9052.0216    
     79000   292.52442     -3601.8484      0             -3079.5446     -75.928371      9078.9499    
     80000   296.80512     -3572.6538      0             -3042.7068      536.5999       8988.7149    
     81000   305.51064     -3538.2563      0             -2992.7655      1177.0516      8863.0627    
     82000   270.37704     -3609.1117      0             -3126.3521     -1080.8055      9040.6138    
     83000   305.72046     -3611.4983      0             -3065.6329      678.66914      8852.9484    
     84000   269.84535     -3600.7882      0             -3118.9779      654.24547      8831.568     
     85000   279.45904     -3573.9808      0             -3075.0052     -87.814448      9151.5376    
     86000   304.58638     -3607.8825      0             -3064.0419      388.25114      8961.7282    
     87000   292.26485     -3574.6778      0             -3052.8374     -636.10024      9301.8168    
     88000   305.66832     -3570.3445      0             -3024.5722     -630.12739      9043.4087    
     89000   290.56936     -3626.952       0             -3108.1389      84.852598      9058.1635    
     90000   283.46078     -3627.6139      0             -3121.4932      226.8863       9055.3133    
     91000   293.80024     -3588.1481      0             -3063.5663     -126.87261      8998.4459    
     92000   297.58221     -3560.7041      0             -3029.3695      317.50775      9025.4512    
     93000   303.26733     -3559.855       0             -3018.3696     -378.37829      9071.7885    
     94000   305.5572      -3588.8068      0             -3043.2328     -1114.2469      9320.9221    
     95000   285.59787     -3599.8823      0             -3089.9458      105.36434      9037.2926    
     96000   306.44481     -3619.409       0             -3072.2502     -151.50494      9145.684     
     97000   296.98988     -3587.8567      0             -3057.5797      43.829256      9231.0723    
     98000   281.59428     -3608.4991      0             -3105.7111      398.02745      8971.3383    
     99000   286.2924      -3577.1293      0             -3065.9527     -54.81747       9176.7914    
    100000   275.1978      -3625.9286      0             -3134.5615     -943.96402      8894.2185    
    101000   299.76025     -3574.4486      0             -3039.2251      497.79916      9058.3953    
    102000   278.28979     -3617.9235      0             -3121.0356     -272.63093      8883.824     
    103000   274.55254     -3622.4633      0             -3132.2483      1114           9092.3825    
    104000   289.75564     -3570.0017      0             -3052.6414     -269.29366      8973.8206    
    105000   290.14604     -3533.3956      0             -3015.3383     -346.29458      8820.2884    
    106000   301.22357     -3622.5665      0             -3084.7302     -1531.5925      9044.9375    
    107000   294.38714     -3628.4564      0             -3102.8266     -236.66603      8984.6407    
    108000   296.6072      -3593.1135      0             -3063.5198      758.4752       8878.4071    
    109000   299.75177     -3599.791       0             -3064.5827      91.961321      9156.0099    
    110000   302.51096     -3550.4407      0             -3010.3058      410.18128      9034.9203    
    111000   295.39834     -3604.3076      0             -3076.8724     -715.70841      8822.9617    
    112000   291.45957     -3583.9891      0             -3063.5865      952.38602      8995.7129    
    113000   290.00784     -3613.1069      0             -3095.2964      407.65838      8858.2684    
    114000   306.14816     -3607.2935      0             -3060.6644     -271.30779      8831.7327    
    115000   283.86997     -3570.2859      0             -3063.4346      988.52994      8957.2561    
    116000   291.65852     -3554.7476      0             -3033.9898      89.840708      8983.4932    
    117000   282.32109     -3574.0258      0             -3069.9401     -235.57953      8849.8846    
    118000   303.13237     -3610.817       0             -3069.5726     -1482.0432      8779.8475    
    119000   290.8715      -3592.5524      0             -3073.1998     -243.10983      8961.2067    
    120000   291.95821     -3552.4684      0             -3031.1754     -44.165102      9280.4801    
    121000   299.05553     -3563.0037      0             -3029.0385     -215.01507      8890.2699    
    122000   285.28975     -3587.6065      0             -3078.2202     -790.38722      8994.314     
    123000   282.64377     -3630.7048      0             -3126.0429     -405.01144      8858.9189    
    124000   305.1688      -3589.5262      0             -3044.6457     -514.33664      9019.6345    
    125000   283.13718     -3609.9882      0             -3104.4453      271.22762      9171.702     
    126000   298.00626     -3613.1252      0             -3081.0334      545.95504      9022.1342    
    127000   291.15073     -3596.9429      0             -3077.0917      330.84015      8856.2556    
    128000   286.20587     -3616.0418      0             -3105.0198     -917.35911      9212.4311    
    129000   293.51509     -3615.251       0             -3091.1782     -102.848        9132.0406    
    130000   284.28189     -3623.7429      0             -3116.1561      757.29404      8935.1215    
    131000   312.20325     -3585.6087      0             -3028.1682      314.07933      9009.4124    
    132000   284.50681     -3613.9307      0             -3105.9424     -950.13942      9013.3749    
    133000   290.45386     -3597.7027      0             -3079.0958      467.89681      8945.5395    
    134000   277.74367     -3568.9741      0             -3073.0614      1103.3026      8865.9539    
    135000   272.0204      -3594.3492      0             -3108.6553     -836.87513      9045.3081    
    136000   297.51265     -3568.0022      0             -3036.7918     -641.23193      9182.89      
    137000   295.6006      -3626.8133      0             -3099.0169     -171.3372       9035.936     
    138000   288.69769     -3594.9648      0             -3079.4936      1167.9694      9045.3484    
    139000   299.26614     -3600.4437      0             -3066.1024      1028.9076      8760.7186    
    140000   287.96158     -3575.3558      0             -3061.1989      699.15153      8977.77      
    141000   295.63435     -3586.5113      0             -3058.6547     -432.4521       9005.6533    
    142000   300.14995     -3573.4529      0             -3037.5336     -269.79878      8994.2851    
    143000   284.74207     -3601.717       0             -3093.3085      857.6305       9074.981     
    144000   304.70893     -3646.3304      0             -3102.271      -388.63874      9185.8073    
    145000   293.74241     -3596.637       0             -3072.1584     -1076.8367      9150.5885    
    146000   306.51344     -3580.663       0             -3033.3817     -704.39033      9023.4417    
    147000   296.78735     -3578.6566      0             -3048.7412      1055.6812      9052.8252    
    148000   286.61961     -3557.4143      0             -3045.6535      597.34108      8765.2786    
    149000   287.07169     -3583.2966      0             -3070.7286      1256.7985      8906.1936    
    150000   298.89505     -3640.7597      0             -3107.0811      9.4687508      8991.2134    
    151000   303.66725     -3555.4745      0             -3013.275      -534.54486      8946.3121    
    152000   276.4777      -3607.7897      0             -3114.1373      421.94559      8891.9191    
    153000   303.11148     -3631.2624      0             -3090.0553     -280.06003      8904.3267    
    154000   294.15278     -3607.7276      0             -3082.5163     -292.99619      9045.5639    
    155000   294.09207     -3570.0206      0             -3044.9176     -1699.4488      9244.3084    
    156000   284.75865     -3593.4368      0             -3084.9987      701.45201      8834.1984    
    157000   282.88426     -3579.3455      0             -3074.2542      172.34366      8907.7896    
    158000   298.63099     -3573.1846      0             -3039.9774     -1261.0694      9107.8534    
    159000   289.1351      -3570.7395      0             -3054.4872      208.59068      9150.1284    
    160000   292.18846     -3571.0987      0             -3049.3947     -369.00229      8983.5954    
    161000   274.82132     -3563.3103      0             -3072.6154     -69.054689      8956.7696    
    162000   293.23747     -3539.7888      0             -3016.2117     -11.824694      9055.1798    
    163000   295.44907     -3529.4059      0             -3001.88        945.69528      9027.5125    
    164000   296.88966     -3573.7506      0             -3043.6525      609.71797      8849.1987    
    165000   282.53696     -3652.5014      0             -3148.0302     -28.746293      9039.1377    
    166000   297.50872     -3607.1117      0             -3075.9083      38.710721      8819.3794    
    167000   283.15342     -3566.4627      0             -3060.8908     -198.51702      9085.4155    
    168000   281.67173     -3559.1377      0             -3056.2114      154.72552      8835.24      
    169000   287.17511     -3569.4782      0             -3056.7256      747.31162      8972.6776    
    170000   291.02635     -3601.0787      0             -3081.4496      3.3436829      9108.0954    
    171000   279.92302     -3584.905       0             -3085.101       1028.6655      8837.2601    
    172000   293.12867     -3593.3536      0             -3069.9708     -1144.282       8885.8212    
    173000   281.8186      -3581.8686      0             -3078.6801      779.05844      8777.4337    
    174000   269.03941     -3596.5592      0             -3116.188       30.200978      8813.9108    
    175000   281.98748     -3566.2006      0             -3062.7104     -468.82369      9083.612     
    176000   285.58908     -3588.8692      0             -3078.9484     -579.68941      8932.538     
    177000   301.89516     -3590.3438      0             -3051.3084     -558.4849       9030.7663    
    178000   273.52665     -3579.9343      0             -3091.5511     -301.24716      9159.7798    
    179000   281.16677     -3599.036       0             -3097.0112      85.441611      9200.3974    
    180000   288.08709     -3584.5758      0             -3070.1948     -1590.9931      9220.0029    
    181000   294.65534     -3595.952       0             -3069.8433      651.90733      8943.25      
    182000   290.7952      -3614.4609      0             -3095.2446     -652.74776      8852.0889    
    183000   285.25731     -3601.4506      0             -3092.1222      613.49165      9043.9933    
    184000   284.52749     -3566.0775      0             -3058.0522      626.20601      9086.4683    
    185000   286.53918     -3562.9126      0             -3051.2954      736.23451      9025.3536    
    186000   296.39081     -3594.7996      0             -3065.5923      33.391882      8949.702     
    187000   299.88785     -3570.4905      0             -3035.0392      250.26375      8939.5262    
    188000   300.44301     -3599.0404      0             -3062.5978     -56.804532      9080.6697    
    189000   296.80983     -3605.7061      0             -3075.7506     -1415.9376      9024.4375    
    190000   291.55209     -3613.058       0             -3092.4902     -70.76178       9014.8202    
    191000   290.6741      -3585.4394      0             -3066.4393     -440.98846      8946.7463    
    192000   300.28032     -3547.083       0             -3010.9309     -531.48398      9177.0494    
    193000   284.71343     -3610.0637      0             -3101.7064     -1288.8272      8971.573     
    194000   286.06103     -3590.0282      0             -3079.2648      845.46303      9027.4496    
    195000   301.75648     -3581.649       0             -3042.8612      199.05136      8955.5455    
    196000   302.2587      -3574.266       0             -3034.5815      683.4686       8893.7192    
    197000   313.444       -3539.9568      0             -2980.3009      1037.8479      8972.4295    
    198000   303.86126     -3622.8434      0             -3080.2975      1535.2201      9013.3326    
    199000   285.51801     -3588.2483      0             -3078.4544     -428.89899      9256.1645    
    200000   288.89308     -3598.9273      0             -3083.1072      775.71294      8972.4473    
    201000   285.66434     -3618.7504      0             -3108.6953      635.80666      8935.3393    
    202000   287.11816     -3614.547       0             -3101.896       870.29636      9110.538     
    203000   282.84658     -3583.4082      0             -3078.3842      609.50148      8900.0793    
    204000   292.34093     -3571.7028      0             -3049.7265      31.512879      9091.0872    
    205000   307.16303     -3560.6823      0             -3012.2411      1332.5278      8991.4749    
    206000   280.6409      -3576.4824      0             -3075.3966     -684.17384      8986.81      
    207000   298.25659     -3594.4614      0             -3061.9227      1399.4226      9123.3475    
    208000   291.32733     -3595.4839      0             -3075.3174      358.82808      9261.8028    
    209000   295.87049     -3562.5404      0             -3034.2621      467.06253      9082.4412    
    210000   300.63601     -3556.0049      0             -3019.2177      1210.3988      8936.3079    
    211000   295.86401     -3557.4237      0             -3029.157      -343.42165      9059.4216    
    212000   287.79716     -3604.6402      0             -3090.7768     -1058.1844      8976.0854    
    213000   297.67751     -3567.8092      0             -3036.3045     -1261.621       9050.3025    
    214000   304.15194     -3617.3087      0             -3074.2438     -351.57524      9031.1001    
    215000   281.77334     -3568.1652      0             -3065.0574      1110.0953      8866.9681    
    216000   288.37802     -3579.9848      0             -3065.0844     -174.34707      9060.7253    
    217000   292.62998     -3548.3659      0             -3025.8735     -23.294974      8954.0282    
    218000   306.76002     -3574.2686      0             -3026.5469      1382.1199      8987.852     
    219000   304.55512     -3574.5835      0             -3030.7988      1363.0603      9178.5982    
    220000   293.23388     -3590.0994      0             -3066.5288      27.197335      8899.2947    
    221000   305.48663     -3556.7048      0             -3011.2568     -811.2149       8977.6523    
    222000   306.78674     -3575.7193      0             -3027.95        389.78546      8828.2868    
    223000   308.31448     -3588.1312      0             -3037.6341     -952.79181      8934.6447    
    224000   290.33641     -3587.9652      0             -3069.568      -260.39547      8901.612     
    225000   294.75876     -3575.2653      0             -3048.972      -1235.2181      9010.5541    
    226000   292.7128      -3605.311       0             -3082.6708      43.963382      8938.3573    
    227000   289.42141     -3557.2002      0             -3040.4367     -359.76139      9075.8659    
    228000   301.98981     -3580.8919      0             -3041.6875      563.77881      8821.6371    
    229000   300.12762     -3610.1265      0             -3074.2471     -524.28307      8875.8091    
    230000   283.00388     -3597.8481      0             -3092.5432     -141.70727      8910.4026    
    231000   297.08622     -3590.6007      0             -3060.1517     -605.99244      9063.5433    
    232000   301.00728     -3532.4256      0             -2994.9755     -289.32833      9346.9619    
    233000   291.10866     -3611.3934      0             -3091.6174     -577.07019      8965.0655    
    234000   287.18708     -3589.6054      0             -3076.8314     -297.10694      9189.5011    
    235000   281.06605     -3600.2761      0             -3098.4312      1484.7801      8864.0511    
    236000   300.01798     -3643.0296      0             -3107.3459      527.50845      8803.3089    
    237000   302.48966     -3571.2234      0             -3031.1265      607.1584       9140.6425    
    238000   294.92657     -3577.8091      0             -3051.2162     -681.58715      8972.7551    
    239000   303.65742     -3608.6563      0             -3066.4744      131.53692      8771.6848    
    240000   298.93412     -3560.6494      0             -3026.901      -226.85331      8975.301     
    241000   306.84654     -3594.9333      0             -3047.0572     -1117.731       9092.7621    
    242000   309.43722     -3576.8652      0             -3024.3635      670.79142      8855.8314    
    243000   297.2324      -3556.5352      0             -3025.8252      924.00828      8905.902     
    244000   281.66476     -3585.5434      0             -3082.6295     -814.81709      9271.4713    
    245000   303.19344     -3589.1353      0             -3047.7818      834.32823      8954.7375    
    246000   309.00194     -3561.4741      0             -3009.7495     -1681.3921      9275.6295    
    247000   303.2792      -3637.0004      0             -3095.4938      25.126685      9025.3528    
    248000   303.37457     -3565.3553      0             -3023.6784     -290.26196      8889.5306    
    249000   288.12728     -3565.729       0             -3051.2763      299.44108      8785.1891    
    250000   287.22577     -3592.9814      0             -3080.1383     -686.35785      8898.297     
    251000   301.29143     -3601.9991      0             -3064.0417      514.6664       8721.8344    
    252000   265.60851     -3619.9841      0             -3145.7387     -260.67808      8961.9669    
    253000   296.40596     -3606.1097      0             -3076.8753     -259.42317      8983.112     
    254000   295.06311     -3567.4894      0             -3040.6527      676.43031      8861.0909    
    255000   306.77574     -3583.9424      0             -3036.1927      1025.375       8883.1238    
    256000   318.91584     -3584.0988      0             -3014.6729      89.721103      8935.5935    
    257000   293.74872     -3549.1527      0             -3024.6628      110.11031      9285.9812    
    258000   294.24173     -3584.2921      0             -3058.9219     -210.8233       9000.7895    
    259000   313.48319     -3599.5864      0             -3039.8605      500.39051      8940.1532    
    260000   300.74914     -3608.968       0             -3071.9788      682.97113      8987.8998    
    261000   291.97382     -3540.6896      0             -3019.3689      282.57926      8920.2486    
    262000   281.01326     -3609.0583      0             -3107.3077     -641.61445      9181.9735    
    263000   315.14862     -3602.0734      0             -3039.3739      76.587481      8865.6813    
    264000   291.01682     -3573.7398      0             -3054.1278     -559.67842      8904.8295    
    265000   293.89032     -3550.6273      0             -3025.8846      248.38559      9178.4276    
    266000   292.672       -3582.3437      0             -3059.7763     -511.84039      9157.5391    
    267000   299.60319     -3602.9087      0             -3067.9657     -1545.7167      8955.2546    
    268000   284.88966     -3602.7595      0             -3094.0875     -441.16736      9032.7302    
    269000   310.87226     -3632.8724      0             -3077.8083     -155.55066      8872.285     
    270000   306.02192     -3554.7358      0             -3008.3321     -1176.9479      9069.4679    
    271000   288.10383     -3529.0069      0             -3014.596      -1013.3983      9281.6848    
    272000   290.18825     -3545.2768      0             -3027.1442     -431.80851      8993.2435    
    273000   288.00726     -3612.3233      0             -3098.0848     -625.68519      9071.5094    
    274000   291.0365      -3595.2983      0             -3075.6511      810.06236      8884.9578    
    275000   300.25781     -3570.8619      0             -3034.75       -94.271973      8713.9382    
    276000   306.92911     -3605.4246      0             -3057.4011     -630.4616       8850.3856    
    277000   286.03043     -3588.5053      0             -3077.7965      684.33904      8975.5279    
    278000   295.63248     -3583.1248      0             -3055.2714     -570.01172      8951.8856    
    279000   278.11389     -3607.5933      0             -3111.0195     -915.81025      9027.2551    
    280000   276.86811     -3606.7437      0             -3112.3942      419.69921      8898.3902    
    281000   298.0928      -3602.3516      0             -3070.1053     -104.1178       9110.5341    
    282000   297.0526      -3605.1958      0             -3074.8069      1386.5936      9028.1957    
    283000   292.77622     -3605.3152      0             -3082.5617     -538.66436      9048.543     
    284000   280.1399      -3569.6061      0             -3069.4148      153.50455      8917.8589    
    285000   287.19603     -3569.7757      0             -3056.9857     -532.34515      8873.1086    
    286000   303.79245     -3614.1726      0             -3071.7496     -116.36368      8959.4468    
    287000   287.64271     -3619.1476      0             -3105.56        1371.1637      8968.0148    
    288000   290.95648     -3536.4271      0             -3016.9228      685.82548      8897.967     
    289000   285.18755     -3565.5335      0             -3056.3296      581.99543      8991.0031    
    290000   291.99821     -3574.8201      0             -3053.4558     -931.28286      9028.9788    
    291000   290.93758     -3572.8219      0             -3053.3514     -460.17697      9091.1916    
    292000   271.74904     -3593.1         0             -3107.8907      80.164552      8824.7575    
    293000   294.27178     -3608.1669      0             -3082.7431     -327.12112      9179.5982    
    294000   306.67463     -3599.5661      0             -3051.997      -675.13357      9002.6692    
    295000   286.95873     -3631.2159      0             -3118.8496      18.894274      9053.1054    
    296000   299.64423     -3613.0317      0             -3078.0154     -891.05827      9095.9787    
    297000   298.76221     -3607.2698      0             -3073.8283     -527.28087      9053.0313    
    298000   296.5536      -3603.177       0             -3073.679       40.975077      9232.7275    
    299000   284.51815     -3655.2964      0             -3147.2877      1432.2328      8843.3957    
    300000   281.67887     -3606.6066      0             -3103.6675     -139.89413      9032.8112    
    301000   292.37222     -3535.1148      0             -3013.0826      558.92209      9060.6059    
    302000   289.34912     -3554.8896      0             -3038.2552      489.05116      8776.6221    
    303000   299.68754     -3590.8883      0             -3055.7946     -238.50375      9012.6926    
    304000   302.17943     -3547.549       0             -3008.0061     -722.05444      8903.2828    
    305000   286.45437     -3572.0511      0             -3060.5853     -972.46571      9135.8585    
    306000   293.54094     -3600.2719      0             -3076.153       673.01335      9066.1468    
    307000   282.44848     -3599.161       0             -3094.8478     -215.06939      8975.5735    
    308000   297.20921     -3640.1129      0             -3109.4443     -317.58621      8998.8655    
    309000   290.18879     -3591.7875      0             -3073.6539     -123.67231      9048.385     
    310000   299.5756      -3585.7326      0             -3050.8388     -64.02043       8900.7035    
    311000   283.48418     -3636.4074      0             -3130.2449      603.96976      8776.2702    
    312000   277.74302     -3559.3736      0             -3063.462       268.93883      8920.8654    
    313000   286.25957     -3601.4075      0             -3090.2896      1425.2988      8973.4534    
    314000   299.33126     -3514.7686      0             -2980.3111      1770.1698      9243.8652    
    315000   288.37961     -3608.5827      0             -3093.6794      1091.9319      8880.2796    
    316000   294.62853     -3572.614       0             -3046.5533      636.38868      8867.272     
    317000   280.8166      -3533.0671      0             -3031.6676     -1402.0844      9391.8771    
    318000   296.92351     -3637.3827      0             -3107.2242     -602.93642      9092.8515    
    319000   294.29732     -3607.384       0             -3081.9146     -717.92593      9046.362     
    320000   289.70315     -3621.9295      0             -3104.663       593.97802      9114.2135    
    321000   308.15499     -3613.5861      0             -3063.3738     -632.33396      9138.1338    
    322000   294.60736     -3561.0557      0             -3035.0327     -595.55         9034.9152    
    323000   288.0323      -3588.7713      0             -3074.4881      686.19112      9137.0795    
    324000   266.00859     -3584.4272      0             -3109.4674     -1150.6496      9056.955     
    325000   290.7683      -3577.4413      0             -3058.273       2300.4748      8786.0127    
    326000   298.41261     -3627.1654      0             -3094.3481     -1034.5412      8815.6655    
    327000   306.52298     -3572.3755      0             -3025.0771     -588.04747      9006.216     
    328000   282.89739     -3630.3087      0             -3125.194       587.92726      8809.4803    
    329000   289.12949     -3616.3124      0             -3100.0702     -1225.9543      9069.6448    
    330000   298.55802     -3582.4605      0             -3049.3836     -29.943517      9219.634     
    331000   276.62466     -3596.653       0             -3102.7383     -194.91582      9012.645     
    332000   292.87947     -3569.6171      0             -3046.6793     -1179.3528      9076.3332    
    333000   304.91031     -3584.9207      0             -3040.5018      2.3087645      9204.2762    
    334000   300.54087     -3580.7529      0             -3044.1356      1365.1742      9036.2322    
    335000   287.68893     -3604.0371      0             -3090.367      -533.92861      8944.2875    
    336000   286.81074     -3567.2444      0             -3055.1424     -581.90593      8984.8828    
    337000   290.80112     -3620.9431      0             -3101.7162     -214.67086      8943.8411    
    338000   298.19475     -3584.7903      0             -3052.362      -58.273173      8920.9674    
    339000   282.72697     -3609.6873      0             -3104.8768      332.82831      9040.9871    
    340000   305.35884     -3610.4494      0             -3065.2296      788.83639      9014.5026    
    341000   277.74021     -3597.4112      0             -3101.5046     -1044.188       9238.3375    
    342000   292.44312     -3544.8359      0             -3022.6771     -58.079049      9022.1721    
    343000   296.94695     -3620.2527      0             -3090.0524      471.86499      8980.0287    
    344000   293.88959     -3553.9572      0             -3029.2158      926.30644      9012.9074    
    345000   310.92419     -3620.5816      0             -3065.4248      1840.8505      8677.2983    
    346000   294.39714     -3576.7347      0             -3051.087       1057.2884      8610.026     
    347000   291.62059     -3555.7662      0             -3035.0761      440.12539      8905.5701    
    348000   292.85132     -3582.4821      0             -3059.5946      881.25931      9026.7101    
    349000   284.007       -3584.9186      0             -3077.8226     -1204.4118      9046.6689    
    350000   290.36844     -3649.5366      0             -3131.0823     -6.1934933      8951.5869    
    351000   295.12603     -3599.7121      0             -3072.763      -70.243745      8962.1311    
    352000   291.87647     -3569.3151      0             -3048.1681     -393.53979      9054.4936    
    353000   285.16497     -3565.7742      0             -3056.6107      840.02553      8882.8173    
    354000   294.439       -3587.6019      0             -3061.8795      181.83305      8847.163     
    355000   290.71035     -3595.9778      0             -3076.913       979.38066      9022.9283    
    356000   296.77533     -3574.2544      0             -3044.3605     -754.81606      8973.5958    
    357000   282.49745     -3595.0441      0             -3090.6435      731.77178      9039.0872    
    358000   294.17422     -3585.2038      0             -3059.9542      512.63022      8970.609     
    359000   310.41493     -3606.941       0             -3052.6935     -70.944808      9028.3008    
    360000   293.40883     -3569.2576      0             -3045.3746      362.02796      8823.563     
    361000   287.44772     -3597.0235      0             -3083.7841     -1449.4315      9156.0182    
    362000   291.36354     -3581.2977      0             -3061.0665     -901.66772      8921.8815    
    363000   294.24465     -3540.8635      0             -3015.4881     -754.59555      8877.823     
    364000   281.211       -3583.9995      0             -3081.8958      952.74858      9005.4543    
    365000   285.21412     -3596.666       0             -3087.4147     -245.28108      8908.2467    
    366000   312.76804     -3600.4333      0             -3041.9843     -286.64651      8804.8126    
    367000   284.51741     -3591.5661      0             -3083.5588      1058.6622      8893.5485    
    368000   295.51122     -3605.9061      0             -3078.2693     -575.77505      8864.9679    
    369000   291.80853     -3578.5706      0             -3057.5449     -201.07063      8963.5064    
    370000   301.3463      -3592.7221      0             -3054.6667     -311.04545      8979.2831    
    371000   312.49517     -3533.7073      0             -2975.7456      1419.9478      8906.9949    
    372000   291.69476     -3568.129       0             -3047.3065      401.82088      8951.8056    
    373000   285.95934     -3610.282       0             -3099.7001      1182.0945      9082.1652    
    374000   291.06164     -3605.9688      0             -3086.2767      392.80741      8864.9677    
    375000   300.07857     -3625.1328      0             -3089.3409      183.46807      8751.276     
    376000   298.14106     -3560.9304      0             -3028.598      -102.50022      9009.6743    
    377000   308.10395     -3570.5837      0             -3020.4625     -1178.9017      8811.1501    
    378000   276.43848     -3608.84        0             -3115.2577     -717.29279      9012.3614    
    379000   309.75096     -3610.2499      0             -3057.1879     -340.51736      8868.166     
    380000   284.0239      -3582.9954      0             -3075.8693     -607.49243      8818.8067    
    381000   281.54078     -3607.8053      0             -3105.1127      22.321478      8857.5114    
    382000   297.27949     -3579.7733      0             -3048.9792      1103.7352      8986.3803    
    383000   288.57476     -3563.8531      0             -3048.6014     -834.16496      9022.515     
    384000   284.64142     -3579.6088      0             -3071.3801     -687.96279      8997.3763    
    385000   290.44789     -3582.1374      0             -3063.5411     -427.69405      9079.3454    
    386000   314.64622     -3574.1445      0             -3012.3421      431.86508      9112.3566    
    387000   298.47386     -3624.4537      0             -3091.5271     -676.60565      9017.0402    
    388000   294.17236     -3581.7462      0             -3056.5         455.03254      9248.0489    
    389000   302.80449     -3581.0529      0             -3040.3939      1456.9307      8859.3834    
    390000   294.83538     -3607.8374      0             -3081.4073     -985.92435      9091.6737    
    391000   282.53767     -3559.7655      0             -3055.293      -311.44594      9047.6328    
    392000   287.43779     -3606.0934      0             -3092.8717     -867.52286      9012.2703    
    393000   294.37387     -3606.1828      0             -3080.5767     -991.49004      8960.9664    
    394000   289.68687     -3628.5116      0             -3111.2742      406.18145      8904.5894    
    395000   296.06619     -3566.5099      0             -3037.8822      639.30767      8915.9463    
    396000   289.43288     -3598.0704      0             -3081.2865      1059.8072      9088.8185    
    397000   294.90577     -3598.1773      0             -3071.6215      933.77326      8870.6974    
    398000   298.2514      -3642.3695      0             -3109.8401      1074.6965      8894.4694    
    399000   313.62592     -3604.5461      0             -3044.5654     -350.39854      8979.2486    
    400000   311.63827     -3613.651       0             -3057.2193     -554.43032      9261.4355    
    401000   300.46883     -3583.6865      0             -3047.1978     -605.92468      9143.1254    
    402000   290.45445     -3568.9915      0             -3050.3836     -925.80793      8956.1903    
    403000   287.72006     -3584.7983      0             -3071.0727     -438.2831       9068.6626    
    404000   286.14564     -3610.8372      0             -3099.9227      464.28065      8916.5328    
    405000   299.77994     -3623.085       0             -3087.8264      502.65206      8898.8726    
    406000   295.55316     -3616.598       0             -3088.8863     -590.88637      9017.8608    
    407000   308.48268     -3600.5231      0             -3049.7257     -1098.49        8861.0265    
    408000   293.84754     -3611.8805      0             -3087.2142     -745.77234      8923.5934    
    409000   295.94426     -3617.6114      0             -3089.2014      494.7727       8992.4345    
    410000   295.67065     -3560.2186      0             -3032.2971      516.19116      9116.1476    
    411000   292.77897     -3591.6907      0             -3068.9323     -1016.0432      9035.2653    
    412000   297.60296     -3567.8606      0             -3036.4889     -551.31969      8923.1122    
    413000   283.33599     -3551.4468      0             -3045.5489     -471.0383       9171.3644    
    414000   295.51586     -3655.8784      0             -3128.2333      1037.3358      8957.1599    
    415000   284.70342     -3593.0453      0             -3084.7059     -1133.6956      9030.1617    
    416000   296.58832     -3592.766       0             -3063.206      -758.99068      8873.972     
    417000   296.3096      -3505.8987      0             -2976.8363     -97.43297       9168.8527    
    418000   292.90397     -3579.1452      0             -3056.1636     -114.05301      8963.846     
    419000   282.06414     -3571.5235      0             -3067.8965     -458.76776      9076.4282    
    420000   287.98678     -3565.0495      0             -3050.8476      746.88351      8991.482     
    421000   285.44111     -3581.8928      0             -3072.2362      535.59471      9154.3832    
    422000   275.02419     -3627.3794      0             -3136.3223      656.3533       8762.38      
    423000   290.05695     -3673.8848      0             -3155.9866      76.386098      8686.3917    
    424000   276.41187     -3625.8825      0             -3132.3477     -797.04146      8962.5387    
    425000   307.56016     -3591.5691      0             -3042.4188     -489.02567      8808.5391    
    426000   270.92772     -3605.453       0             -3121.7102     -298.14572      9025.3065    
    427000   289.71187     -3624.782       0             -3107.5         868.4069       9054.7914    
    428000   291.25151     -3574.8932      0             -3054.8621      1226.7862      9030.7306    
    429000   280.92003     -3566.0695      0             -3064.4853     -765.98918      9043.5625    
    430000   278.50706     -3616.2729      0             -3118.9971     -343.57939      8944.9721    
    431000   282.4117      -3632.7511      0             -3128.5036      471.15878      8960.775     
    432000   289.34816     -3562.2083      0             -3045.5756     -342.1737       8967.9871    
    433000   283.68174     -3569.9287      0             -3063.4135     -1402.6844      9014.9295    
    434000   280.00823     -3628.8842      0             -3128.9281      1027.877       9155.8411    
    435000   283.50617     -3646.9141      0             -3140.7123     -1321.2361      9000.7799    
    436000   306.11844     -3513.3158      0             -2966.7398     -883.69263      8978.0019    
    437000   304.06046     -3612.2753      0             -3069.3738     -165.91202      8951.8404    
    438000   296.38385     -3573.0795      0             -3043.8846      1042.0822      9097.6279    
    439000   291.80482     -3568.2681      0             -3047.2491     -1549.6801      9231.7349    
    440000   302.9898      -3570.1817      0             -3029.1918     -847.48405      9111.2472    
    441000   302.98342     -3628.6795      0             -3087.701      -511.79518      9087.337     
    442000   291.31577     -3553.4474      0             -3033.3016     -207.2305       8948.0691    
    443000   284.82894     -3601.0835      0             -3092.5199     -195.38078      8980.7964    
    444000   304.7464      -3612.7109      0             -3068.5846     -1212.8267      9047.7049    
    445000   292.40468     -3599.7889      0             -3077.6988      286.00747      9033.4366    
    446000   285.4533      -3609.9006      0             -3100.2222      283.89506      9080.2674    
    447000   303.28936     -3577.5129      0             -3035.9882      205.98318      9135.2499    
    448000   285.72816     -3610.8063      0             -3100.6372      426.5754       9085.693     
    449000   279.91304     -3646.4377      0             -3146.6515     -67.838412      8866.9719    
    450000   295.88408     -3573.3186      0             -3045.016      -96.249643      9158.0533    
    451000   287.55526     -3580.7982      0             -3067.3668      667.38975      9064.0243    
    452000   284.04001     -3567.1097      0             -3059.9548      167.82167      8927.1205    
    453000   293.17088     -3562.4676      0             -3039.0095      172.27095      9160.0754    
    454000   290.84188     -3600.2622      0             -3080.9625     -400.91177      9062.248     
    455000   303.09853     -3592.494       0             -3051.31        1044.1526      8883.9437    
    456000   293.78774     -3545.608       0             -3021.0485      686.67311      9040.4897    
    457000   303.03342     -3554.3005      0             -3013.2328     -415.78305      9188.1732    
    458000   268.64137     -3594.1624      0             -3114.5018     -172.19435      8969.2907    
    459000   313.8042      -3590.2702      0             -3029.9712      91.19257       8923.6456    
    460000   295.35546     -3538.429       0             -3011.0702      1027.0505      9029.4408    
    461000   280.75721     -3566.6266      0             -3065.3331      748.53986      8999.0723    
    462000   300.86221     -3583.4633      0             -3046.2722      1000.0406      8782.5444    
    463000   286.12442     -3573.467       0             -3062.5903      337.23162      8862.9199    
    464000   288.4522      -3549.4429      0             -3034.41        1001.6431      8802.0672    
    465000   293.22911     -3579.4153      0             -3055.8532     -1083.3074      9003.3208    
    466000   299.93897     -3637.0818      0             -3101.5392      411.34254      9021.4735    
    467000   314.27036     -3608.3036      0             -3047.1722      61.092219      8915.4626    
    468000   271.46056     -3627.3488      0             -3142.6546     -1107.6953      9035.058     
    469000   290.83676     -3551.5836      0             -3032.2931      620.76803      9091.9964    
    470000   282.48734     -3559.2005      0             -3054.8179      226.14677      9316.2898    
    471000   292.42873     -3576.8449      0             -3054.7119      365.2427       9106.8276    
    472000   286.85487     -3599.1059      0             -3086.925       465.83735      9061.7389    
    473000   289.80371     -3609.4448      0             -3091.9988      750.32616      8988.5907    
    474000   300.50112     -3568.5419      0             -3031.9956     -484.87366      8888.2828    
    475000   291.89902     -3597.7789      0             -3076.5917     -37.897753      8834.6927    
    476000   296.23811     -3513.3253      0             -2984.3906      877.00224      8985.8042    
    477000   291.98529     -3612.0244      0             -3090.6831      837.46136      8993.1314    
    478000   293.74625     -3578.8242      0             -3054.3387      1141.2928      9024.3237    
    479000   270.28954     -3602.4811      0             -3119.8777      1054.8204      8780.8853    
    480000   297.38902     -3571.2414      0             -3040.2517     -258.23372      9015.6906    
    481000   296.41756     -3571.4168      0             -3042.1617      107.15174      9009.1525    
    482000   292.35848     -3619.8889      0             -3097.8813      245.09512      8837.3487    
    483000   292.58838     -3605.0159      0             -3082.5978     -258.70338      9008.5483    
    484000   307.75352     -3619.3664      0             -3069.8709      7.8459059      9221.2964    
    485000   273.47999     -3613.296       0             -3124.996      -886.11967      9188.0199    
    486000   294.91275     -3607.4266      0             -3080.8583     -71.407249      8886.792     
    487000   310.15463     -3580.5925      0             -3026.8098     -764.47579      9093.2414    
    488000   283.99686     -3551.251       0             -3044.1731     -447.79796      8965.1408    
    489000   307.68851     -3581.0004      0             -3031.621      -46.292512      8893.6074    
    490000   295.58112     -3620.5595      0             -3092.7979      432.38585      8854.9376    
    491000   277.63356     -3565.6679      0             -3069.9517     -550.4791       9017.9313    
    492000   296.70671     -3549.8166      0             -3020.0452      983.93441      9019.6558    
    493000   281.37546     -3555.4995      0             -3053.1022      211.6595       9009.5893    
    494000   304.66274     -3572.2074      0             -3028.2305      665.03478      8935.9922    
    495000   296.4504      -3570.9434      0             -3041.6296     -137.85443      9081.6589    
    496000   300.12042     -3616.6042      0             -3080.7376     -1735.1501      9143.593     
    497000   296.31097     -3585.9542      0             -3056.8894     -1195.576       9073.9907    
    498000   284.95822     -3578.0393      0             -3069.2449     -400.67043      9133.8702    
    499000   300.70931     -3593.1992      0             -3056.2811      363.17474      8898.6193    
    500000   290.67727     -3613.1403      0             -3094.1345     -1284.3262      8990.9734    
Loop time of 1398.01 on 8 procs for 500000 steps with 900 atoms

Performance: 61.802 ns/day, 0.388 hours/ns, 357.650 timesteps/s, 321.885 katom-step/s
96.2% CPU use with 8 MPI tasks x no OpenMP threads

MPI task timing breakdown:
Section |  min time  |  avg time  |  max time  |%varavg| %total
---------------------------------------------------------------
Pair    | 530.13     | 590.68     | 653.67     | 173.8 | 42.25
Bond    | 0.12892    | 0.1429     | 0.1616     |   2.8 |  0.01
Kspace  | 483.94     | 547.68     | 608.94     | 183.3 | 39.18
Neigh   | 59.285     | 59.457     | 59.659     |   1.9 |  4.25
Comm    | 63.437     | 64.976     | 66.368     |  11.7 |  4.65
Output  | 0.10276    | 0.11204    | 0.16116    |   5.6 |  0.01
Modify  | 88.569     | 101.11     | 113.33     |  85.4 |  7.23
Other   |            | 33.85      |            |       |  2.42

Nlocal:          112.5 ave         122 max         105 min
Histogram: 1 2 1 1 0 0 0 1 0 2
Nghost:        4757.75 ave        4788 max        4721 min
Histogram: 1 0 1 0 1 2 1 0 1 1
Neighs:        42877.6 ave       51215 max       37960 min
Histogram: 2 0 2 1 1 1 0 0 0 1

Total # of neighbors = 343021
Ave neighs/atom = 381.13444
Ave special neighs/atom = 2
Neighbor list builds = 37169
Dangerous builds = 0
Total wall time: 0:23:18
