LAMMPS (20 Nov 2019)
# LAMMPS input file
# Bulk TIP4P/2005 water system
# author : Simon Gravelle
############### variables
variable pre equal 1 # desired pressure (Atm)
variable tem equal 293.15 # desired temperature (K)
############### main parameters
units real # style of units (A, fs, Kcal/mol)
atom_style full # molecular + charge
bond_style harmonic
angle_style harmonic
boundary p p p # periodic boundary conditions
pair_style lj/cut/tip4p/long 1 2 1 1 0.105 10 10 # cut-off 1 nm
kspace_style pppm/tip4p 1.0e-4
pair_modify mix arithmetic tail yes # eij = sqrt(ei*ej), dij = 0.5*(di+dj)
############### import positions and parameters
read_data conf.data
  orthogonal box = (-11.4085 -11.4085 -11.4085) to (11.4085 11.4085 11.4085)
  2 by 1 by 2 MPI processor grid
  reading atoms ...
  1200 atoms
  reading velocities ...
  1200 velocities
  scanning bonds ...
  2 = max bonds/atom
  scanning angles ...
  1 = max angles/atom
  reading bonds ...
  800 bonds
  reading angles ...
  400 angles
  2 = max # of 1-2 neighbors
  1 = max # of 1-3 neighbors
  1 = max # of 1-4 neighbors
  2 = max # of special neighbors
  special bonds CPU = 0.000296686 secs
  read_data CPU = 0.00489035 secs
include PARM.lammps
############### mass parameters
mass 		1 15.9994 # O water TIP4P/2005
mass 		2 1.008 # H water TIP4P/2005
############### pair coeffs
pair_coeff 	1 1 0.18481 3.165 # TIP4P/2005
pair_coeff 	2 2 0.0 0.0 # TIP4P/2005
############### bond coeffs
bond_coeff 	1 0 0.9572 # TIP4P/2005
############### angle coeffs
angle_coeff 	1 0 104.52 # TIP4P/2005
############### groups # descriptions
group wat type 1 2 # water
1200 atoms in group wat
group hyd type 2 # hydrogen
800 atoms in group hyd
############### dynamics
timestep 2 # (fs)
fix myshk wat shake 1.0e-5 200 0 b 1 a 1 # shake with increases precision
  0 = # of size 2 clusters
  0 = # of size 3 clusters
  0 = # of size 4 clusters
  400 = # of frozen angles
  find clusters CPU = 0.000229508 secs
fix mynvt all nvt temp ${tem} ${tem} 100 # nvt equilibrium
fix mynvt all nvt temp 293.15 ${tem} 100 
fix mynvt all nvt temp 293.15 293.15 100 
############### output
dump dp1 wat xtc 500 traj.xtc
thermo 1000
############### run
run 500000 # 200 ps
PPPM initialization ...
  extracting TIP4P info from pair style
  using 12-bit tables for long-range coulomb (src/kspace.cpp:323)
  G vector (1/distance) = 0.283588
  grid = 15 15 15
  stencil order = 5
  estimated absolute RMS force accuracy = 0.01686
  estimated relative force accuracy = 5.07734e-05
  using double precision FFTW3
  3d grid and FFT values/proc = 4312 960
Neighbor list info ...
  update every 1 steps, delay 10 steps, check yes
  max neighbors/atom: 2000, page size: 100000
  master list distance cutoff = 12.21
  ghost atom cutoff = 12.21
  binsize = 6.105, bins = 4 4 4
  1 neighbor lists, perpetual/occasional/extra = 1 0 0
  (1) pair lj/cut/tip4p/long, perpetual
      attributes: half, newton on
      pair build: half/bin/newton
      stencil: half/bin/3d/newton
      bin: standard
Per MPI rank memory allocation (min/avg/max) = 8.828 | 8.843 | 8.853 Mbytes
Step Temp E_pair E_mol TotEng Press 
       0    299.67103   -4814.3383            0   -4100.6216   -98.701453 
    1000    301.61899   -4824.5934            0   -4106.2374    366.21837 
    2000    299.46456   -4828.2999            0    -4115.075    314.37518 
    3000    284.95175   -4799.8544            0   -4121.1942   -463.71559 
    4000    308.54377   -4789.0311            0   -4054.1825   -611.17024 
    5000    287.86745   -4729.4425            0    -4043.838    284.67521 
    6000     289.1772   -4789.9927            0   -4101.2688    408.04852 
    7000    285.90967     -4812.34            0   -4131.3983    1526.1728 
    8000    278.73655   -4738.8741            0   -4075.0165    88.176535 
    9000     300.0555   -4720.8227            0   -4006.1903     139.9551 
   10000    299.16795   -4770.8667            0   -4058.3482   -93.099398 
   11000    288.48869    -4736.429            0    -4049.345    1137.2037 
   12000    298.08683   -4795.9031            0   -4085.9594    2.5625467 
   13000     298.5943   -4774.9163            0   -4063.7641    476.63035 
   14000    283.23702    -4796.773            0   -4122.1967   -511.79761 
   15000    323.62117   -4757.0121            0   -3986.2542   -298.80134 
   16000    299.52589   -4721.8703            0   -4008.4993   -78.749509 
   17000    291.69324   -4795.2936            0   -4100.5773    1790.1137 
   18000     291.9821    -4729.817            0   -4034.4128    1095.9016 
   19000    293.80644   -4810.9487            0   -4111.1995    974.24286 
   20000    297.05936   -4788.2338            0   -4080.7372   -228.64274 
   21000    290.42274   -4771.5952            0   -4079.9049    550.21293 
   22000    294.77518   -4812.4115            0   -4110.3551    523.66173 
   23000    291.44935   -4827.0363            0   -4132.9009   -163.86368 
   24000    290.82132   -4794.5142            0   -4101.8746    260.73276 
   25000    303.56922   -4804.0775            0   -4081.0767   -166.29297 
   26000    296.77602   -4804.3598            0   -4097.5381   -1159.9419 
   27000    281.67794   -4762.4533            0   -4091.5902      579.384 
   28000    287.03579   -4717.1488            0   -4033.5251    1718.5083 
   29000    312.25346   -4793.4224            0   -4049.7386    50.126155 
   30000    297.56803   -4784.3212            0   -4075.6132    66.163111 
   31000    295.01789   -4813.5752            0   -4110.9407    822.12477 
   32000    311.83045   -4790.5599            0   -4047.8836   -317.81391 
   33000    289.59262   -4785.5705            0   -4095.8572    98.728107 
   34000    293.81493   -4802.5791            0   -4102.8097    132.10908 
   35000    299.21827   -4751.7454            0   -4039.1071    348.59673 
   36000    291.40793    -4740.614            0   -4046.5772    1270.5667 
   37000     278.6402   -4798.4297            0   -4134.8015   -4.5714108 
   38000    305.11532   -4815.5044            0   -4088.8212    173.69161 
   39000    285.55251   -4796.5938            0   -4116.5027    1740.9821 
   40000     308.0344   -4759.1353            0   -4025.4998    485.41549 
   41000    280.51064    -4724.912            0   -4056.8291    194.02041 
   42000    308.30459   -4784.2952            0   -4050.0163    256.62666 
   43000    283.05789    -4785.585            0   -4111.4352   -683.14746 
   44000    281.87499   -4816.2251            0   -4144.8927      139.643 
   45000    292.62714   -4758.7671            0   -4061.8266    932.81433 
   46000    293.16714   -4737.6039            0   -4039.3774    348.05724 
   47000    293.58274   -4789.8641            0   -4090.6477    163.19868 
   48000    288.72773   -4891.0643            0   -4203.4109    -934.9921 
   49000    283.52922    -4803.058            0   -4127.7857   -569.84764 
   50000    288.00556   -4812.6906            0   -4126.7572    187.65869 
   51000    298.75202   -4783.4034            0   -4071.8755   -82.911967 
   52000    307.87063   -4759.3643            0   -4026.1189    171.50559 
   53000    292.33119   -4806.3959            0   -4110.1602    259.68096 
   54000    301.45748   -4749.2238            0   -4031.2524     106.4591 
   55000    322.51065   -4701.4849            0   -3933.3718    37.161106 
   56000    301.03931    -4762.346            0   -4045.3706   -219.12423 
   57000     287.4211   -4766.2504            0    -4081.709    439.53011 
   58000    285.44422   -4792.3251            0   -4112.4919   -16.015049 
   59000     287.0772   -4819.6157            0   -4135.8933    582.73347 
   60000    302.13104   -4742.0111            0   -4022.4355   -182.03807 
   61000    283.72627    -4786.548            0   -4110.8064   -507.11192 
   62000    296.22057   -4740.4791            0   -4034.9803     464.1973 
   63000     304.9063   -4782.3667            0   -4056.1813    512.42652 
   64000    288.38987   -4776.1227            0    -4089.274     194.3692 
   65000    295.65773   -4840.6518            0   -4136.4935    1492.0775 
   66000    294.93898   -4838.6077            0   -4136.1612    223.31853 
   67000    315.26533   -4761.3701            0   -4010.5129    220.07582 
   68000    285.58357   -4766.8883            0   -4086.7233    827.71094 
   69000    288.55519   -4764.1528            0   -4076.9104   -623.85204 
   70000    306.84819    -4739.238            0   -4008.4277    1681.9941 
   71000     284.0977   -4756.5154            0   -4079.8892   -1333.7603 
   72000    302.21377   -4854.6568            0   -4134.8842   -311.33056 
   73000    283.04565   -4834.6411            0   -4160.5205   -509.62429 
   74000    282.73605   -4807.1926            0   -4133.8094    263.62667 
   75000    293.32486   -4818.8808            0   -4120.2786   -36.146908 
   76000     284.3567   -4803.0519            0   -4125.8089     2006.302 
   77000    294.16369   -4779.2804            0   -4078.6804    299.38216 
   78000    290.16603   -4813.7486            0   -4122.6697    304.05972 
   79000    289.51289   -4759.6443            0   -4070.1209    1873.5466 
   80000    291.30822   -4811.3162            0   -4117.5169    737.56958 
   81000    281.38395   -4777.1322            0   -4106.9692    185.67476 
   82000    294.53897   -4713.0044            0   -4011.5106   -245.12961 
   83000    289.47714   -4773.1099            0   -4083.6717    275.02302 
   84000    287.08749   -4763.9598            0   -4080.2129    9.2773646 
   85000    275.83335   -4789.9912            0   -4133.0479    621.97662 
   86000    303.96665   -4797.4772            0   -4073.5298    330.64725 
   87000    295.43802   -4820.6522            0   -4117.0171    1282.8371 
   88000    304.56796   -4777.3359            0   -4051.9563    941.94626 
   89000    285.62163   -4754.8032            0   -4074.5475   -1088.2743 
   90000    296.24902   -4810.8533            0   -4105.2867    725.95491 
   91000    294.45852   -4771.4063            0   -4070.1041   -139.64968 
   92000    299.12176   -4838.7117            0   -4126.3032    262.54498 
   93000    285.32797   -4823.4297            0   -4143.8734   -418.48551 
   94000    285.25593   -4804.9335            0   -4125.5488    899.24311 
   95000    295.36891   -4803.8913            0   -4100.4208    1080.8402 
   96000    297.35589   -4798.9949            0   -4090.7921    517.88963 
   97000    290.80944   -4816.3079            0   -4123.6966    99.428513 
   98000    292.53077    -4777.581            0     -4080.87   -1451.2451 
   99000    273.93749   -4818.4779            0     -4166.05    402.14505 
  100000    306.74717   -4764.3205            0   -4033.7508    705.44918 
  101000    293.54242   -4798.9586            0   -4099.8382   -559.27631 
  102000    289.75526   -4767.2489            0   -4077.1482   -739.71044 
  103000    293.32415    -4762.737            0   -4064.1365   -112.20474 
  104000    292.77037   -4758.8784            0   -4061.5968   -555.44461 
  105000     291.3794   -4704.5061            0   -4010.5373    705.25388 
  106000    297.32388   -4735.6949            0   -4027.5684   -223.71866 
  107000    299.57229    -4775.938            0   -4062.4565    766.78503 
  108000     296.4401   -4872.1487            0    -4166.127    601.23243 
  109000     295.3456   -4811.5277            0   -4108.1128    759.51554 
  110000    282.05218   -4792.9228            0   -4121.1683   -1291.4159 
  111000     310.1202   -4759.8583            0   -4021.2552    198.39381 
  112000    289.60644   -4753.7618            0   -4064.0157    -936.4222 
  113000     302.2985   -4830.3762            0   -4110.4017    350.02301 
  114000    304.64852   -4789.2128            0   -4063.6414   -426.53697 
  115000     304.5677   -4749.6767            0   -4024.2978    213.08169 
  116000    286.07135   -4805.3755            0   -4124.0487   -65.156275 
  117000    298.35037   -4811.3943            0    -4100.823    213.59603 
  118000    296.49849   -4770.9505            0   -4064.7898    740.09764 
  119000    287.38164   -4825.8131            0   -4141.3656    730.34774 
  120000    291.70944   -4809.3979            0   -4114.6431   -862.86423 
  121000    291.89124   -4769.5133            0   -4074.3255   -594.85106 
  122000    297.07638   -4776.1501            0    -4068.613    406.60808 
  123000    290.41935   -4749.5143            0    -4057.832    289.52347 
  124000    287.24388   -4772.3195            0   -4088.2002    732.88474 
  125000    297.17795   -4792.2196            0   -4084.4406    60.936681 
  126000      296.316   -4802.8734            0   -4097.1473    648.90898 
  127000    285.78696   -4788.3338            0   -4107.6843    538.90593 
  128000    293.24716   -4791.0125            0   -4092.5953    58.420041 
  129000    289.82942   -4781.3647            0   -4091.0875    1453.8578 
  130000    281.76395   -4712.0503            0   -4040.9824   -354.60062 
  131000    303.44863    -4774.715            0   -4052.0013    818.40271 
  132000    281.71728    -4757.732            0   -4086.7752    1112.6421 
  133000    277.94905   -4755.6489            0   -4093.6668    96.547843 
  134000    304.41941   -4771.5119            0   -4046.4862    -667.1413 
  135000    294.86833   -4798.0362            0    -4095.758    1134.4863 
  136000    289.86067   -4780.1715            0   -4089.8198    716.33471 
  137000    285.98392   -4758.9578            0   -4077.8393    580.80178 
  138000    277.65119    -4810.292            0   -4149.0193    30.300882 
  139000    293.46404   -4801.1285            0   -4102.1948    236.84563 
  140000    282.30612   -4807.0193            0     -4134.66    12.848761 
  141000    303.64809   -4774.4818            0   -4051.2931    563.88872 
  142000    303.44908   -4741.0138            0    -4018.299     1310.413 
  143000     283.0384   -4778.1063            0   -4104.0031    391.82003 
  144000     309.9401   -4733.3608            0   -3995.1866   -93.762556 
  145000    301.14074   -4803.0758            0   -4085.8588    299.39889 
  146000    286.92337   -4833.8547            0   -4150.4987       75.256 
  147000    296.20742    -4777.358            0   -4071.8905    444.58776 
  148000    293.02395    -4764.375            0   -4066.4895    -300.7321 
  149000    280.38168   -4789.1602            0   -4121.3843   -860.40962 
  150000    302.81221   -4756.1002            0   -4034.9023    96.350693 
  151000    286.87992    -4783.797            0   -4100.5445    672.41517 
  152000    283.79386    -4789.241            0   -4113.3385    1005.2992 
  153000    295.99076   -4800.7784            0   -4095.8269   -320.53353 
  154000    289.75365    -4842.005            0   -4151.9082    210.51149 
  155000    278.68889   -4717.6379            0   -4053.8937    479.27518 
  156000    299.65117   -4811.5814            0   -4097.9121   -179.12234 
  157000    306.89982   -4769.3414            0   -4038.4082   -808.32257 
  158000    288.82428   -4840.6876            0   -4152.8043   -261.37901 
  159000     285.8096   -4731.7269            0   -4051.0235    1116.7007 
  160000      293.266   -4805.1672            0   -4106.7052    740.66226 
  161000    291.29944   -4839.6696            0   -4145.8913   -716.14261 
  162000    285.78058   -4752.2586            0   -4071.6243   -724.36163 
  163000     292.4434   -4806.8674            0   -4110.3646    862.64181 
  164000    300.06702   -4822.5861            0   -4107.9263    295.84575 
  165000    298.34117   -4734.7626            0   -4024.2132    706.80224 
  166000    301.41022   -4846.1175            0   -4128.2586   -285.35391 
  167000    295.89977    -4783.878            0   -4079.1432    -844.8913 
  168000    288.33497   -4740.2634            0   -4053.5454     592.6984 
  169000    308.31526   -4802.9742            0   -4068.6698    -180.0856 
  170000    296.46764    -4817.317            0   -4111.2297    663.97003 
  171000    284.00354   -4815.9964            0   -4139.5945    277.56404 
  172000    310.07087   -4776.5007            0    -4038.015    428.67162 
  173000    303.56953   -4719.9754            0   -3996.9738   -659.34551 
  174000    286.91208   -4799.5573            0   -4116.2282    715.75601 
  175000    280.07837   -4743.0014            0    -4075.948    533.99372 
  176000     299.8722   -4765.3284            0   -4051.1326    241.93268 
  177000    296.79028    -4737.654            0   -4030.7983   -656.20847 
  178000    291.77976   -4750.2448            0   -4055.3225    -505.9564 
  179000    291.20791   -4763.7889            0   -4070.2286     381.6801 
  180000    283.71261   -4796.7688            0   -4121.0598   -331.91285 
  181000    281.37263   -4775.3815            0   -4105.2455    1021.6202 
  182000    292.88712   -4811.6679            0   -4114.1083   -1321.9783 
  183000    292.31491   -4805.5461            0   -4109.3493    323.36606 
  184000    285.12274   -4751.4925            0    -4072.425   -47.097682 
  185000    289.88169   -4780.2115            0   -4089.8098    31.557453 
  186000    285.53467   -4735.0152            0   -4054.9666     26.97871 
  187000    294.54472   -4786.0258            0   -4084.5183   -586.84004 
  188000    289.85524   -4794.6812            0   -4104.3425    255.07552 
  189000    297.51332   -4818.8564            0   -4110.2786    1885.1276 
  190000    293.98466   -4734.7211            0   -4034.5475    241.08613 
  191000    288.54982   -4788.4108            0   -4101.1812    855.59925 
  192000    287.14351   -4774.9057            0   -4091.0255   -535.07767 
  193000    293.58216   -4772.6978            0   -4073.4828   -92.213285 
  194000    286.38533   -4771.7291            0   -4089.6545    421.72521 
  195000    285.39093   -4765.0955            0   -4085.3893    459.88201 
  196000    290.44356   -4851.2973            0   -4159.5574   -24.037812 
  197000    290.85328   -4807.9166            0   -4115.2008   -206.62276 
  198000    283.94761    -4803.248            0   -4126.9793    767.58829 
  199000    307.80639   -4837.0698            0   -4103.9774   -551.79127 
  200000    288.21656   -4801.7524            0   -4115.3165    976.87052 
  201000    296.34945   -4845.4655            0   -4139.6598    32.852152 
  202000    299.36249   -4804.6548            0    -4091.673    1234.3265 
  203000    286.16771   -4758.5817            0   -4077.0254   -518.77929 
  204000    307.62054   -4763.1719            0   -4030.5222    1019.0737 
  205000    298.30866   -4747.1873            0   -4036.7153    408.39026 
  206000    291.33242   -4800.2617            0   -4106.4048    715.69508 
  207000    280.39825   -4779.9156            0   -4112.1003    571.92735 
  208000    298.43963   -4816.1791            0   -4105.3952   -777.36349 
  209000    295.46475   -4822.9981            0   -4119.2994   -396.19594 
  210000    282.92144   -4786.8708            0    -4113.046    43.218136 
  211000    305.92305   -4815.8926            0   -4087.2857    242.93078 
  212000    295.35128   -4766.9814            0    -4063.553     177.6631 
  213000    285.87496    -4812.543            0    -4131.684   -332.61514 
  214000    287.39543   -4789.8493            0    -4105.369   -37.829014 
  215000    305.97569    -4764.317            0   -4035.5847    754.89561 
  216000    302.43973   -4803.3604            0   -4083.0496    1432.6785 
  217000    295.51672   -4805.0846            0   -4101.2621     1045.997 
  218000    300.83678   -4813.6657            0   -4097.1726   -3.0915048 
  219000    308.91123   -4782.6529            0   -4046.9291    378.70253 
  220000    304.06639    -4758.044            0   -4033.8591   -66.648087 
  221000    269.75186   -4789.9267            0   -4147.4676    25.333541 
  222000    270.71229   -4779.6205            0   -4134.8739    652.66675 
  223000    285.01638   -4808.2501            0   -4129.4359    821.37076 
  224000    294.18374   -4827.9975            0   -4127.3497    1054.9879 
  225000    300.29513   -4808.8824            0   -4093.6793    87.098893 
  226000     300.6225   -4756.3482            0   -4040.3654    1299.9365 
  227000    281.23071   -4744.7275            0   -4074.9295    767.64912 
  228000    303.54023     -4815.66            0   -4092.7282    1742.2754 
  229000    294.72313   -4828.7248            0   -4126.7924    715.56186 
  230000    284.09004   -4785.9859            0    -4109.378    348.35662 
  231000    270.73376   -4834.2293            0   -4189.4316    607.68295 
  232000    290.37307   -4796.2337            0   -4104.6617    300.13794 
  233000    283.68679   -4813.4239            0   -4137.7764   -323.78042 
  234000    298.64855   -4804.9243            0   -4093.6429     710.2142 
  235000    297.76585   -4756.1543            0   -4046.9752    68.828503 
  236000    291.49001   -4805.6698            0   -4111.4376    628.63957 
  237000    285.28526   -4732.6484            0   -4053.1939    110.51106 
  238000    296.23112   -4773.1545            0   -4067.6306   -689.17479 
  239000    305.24275   -4804.0328            0   -4077.0461    299.63824 
  240000    296.55572   -4770.1199            0   -4063.8229    1144.6233 
  241000    298.58063   -4833.2517            0    -4122.132    852.76434 
  242000    296.47245   -4679.8452            0   -3973.7465   -96.478164 
  243000    298.20798   -4789.6447            0   -4079.4125    11.347443 
  244000    292.86033   -4778.1409            0    -4080.645    10.333528 
  245000    293.58009   -4764.1123            0   -4064.9022    2061.9387 
  246000    295.30621   -4763.8587            0   -4060.5376    1010.0741 
  247000    291.97954   -4786.0557            0   -4090.6576    315.51568 
  248000    286.51669   -4787.4858            0   -4105.0984    314.31543 
  249000    290.68576   -4840.4053            0   -4148.0885    464.80849 
  250000    287.50893   -4772.1778            0   -4087.4272    65.409765 
  251000    279.65291   -4800.3711            0   -4134.3309    440.18215 
  252000    298.08372   -4807.7929            0   -4097.8566     844.2715 
  253000    284.04968   -4857.7117            0   -4181.1999    299.24187 
  254000    309.96116   -4776.3357            0   -4038.1114    510.03411 
  255000    298.97006    -4766.889            0   -4054.8418    175.68379 
  256000    295.27665   -4718.7409            0   -4015.4901    984.27433 
  257000    292.11283   -4809.2479            0   -4113.5323   -567.78106 
  258000    301.39988   -4802.8962            0    -4085.062   -825.53805 
  259000    282.17238   -4833.5869            0   -4161.5462    1509.4887 
  260000    279.49694   -4783.3997            0    -4117.731   -183.63757 
  261000    295.70001   -4777.9385            0   -4073.6795    1380.2139 
  262000    281.57327   -4770.7163            0   -4100.1025   -470.77337 
  263000    305.68165   -4779.2253            0   -4051.1933    278.28445 
  264000    304.80101   -4810.5735            0   -4084.6389    284.43473 
  265000    286.98444   -4813.5651            0   -4130.0637   -749.55494 
  266000    283.95325    -4747.313            0   -4071.0308   -770.04161 
  267000    289.45063   -4771.5021            0    -4082.127   -63.360275 
  268000    296.73638   -4806.6834            0   -4099.9561    53.844918 
  269000    288.99383   -4770.9967            0   -4082.7095    416.77815 
  270000    296.22825   -4813.7596            0   -4108.2425   -7.2457887 
  271000    312.70199   -4759.0414            0   -4014.2893    1046.5042 
  272000    283.85287   -4785.0128            0   -4108.9697   -136.48508 
  273000    290.76197   -4828.0409            0   -4135.5426   -744.86834 
  274000    284.87071   -4787.9111            0   -4109.4439   -47.408901 
  275000    294.77087   -4807.9342            0    -4105.888    -250.0617 
  276000    288.86291   -4814.5618            0   -4126.5865    730.16218 
  277000    285.72357   -4806.6351            0   -4126.1367   -810.76529 
  278000    279.27026   -4754.4652            0   -4089.3363    192.60048 
  279000    291.85558   -4765.0769            0    -4069.974    537.13134 
  280000    296.11625   -4755.2986            0   -4050.0482    721.20709 
  281000    287.08881   -4800.8738            0   -4117.1238   -376.30576 
  282000    276.01665   -4829.0186            0   -4171.6388    588.53164 
  283000    302.05227   -4790.1941            0   -4070.8061    679.90257 
  284000    282.24912   -4756.7465            0    -4084.523    781.90813 
  285000    295.41529   -4793.2339            0    -4089.653    727.40739 
  286000    286.11762   -4749.3342            0   -4067.8973   -553.59086 
  287000    288.64435    -4744.075            0   -4056.6202   -351.40106 
  288000    297.91253   -4814.0649            0   -4104.5364    461.47269 
  289000    299.29607   -4751.4286            0    -4038.605   -75.836217 
  290000    303.48625   -4738.2067            0   -4015.4034    130.82382 
  291000    284.28961   -4778.4185            0   -4101.3352   -413.06071 
  292000    292.07549   -4819.8191            0   -4124.1925    -26.41415 
  293000    295.87513   -4721.5558            0   -4016.8797    717.02217 
  294000    296.27137   -4784.5923            0   -4078.9725    922.54962 
  295000    298.77698    -4804.774            0   -4093.1866    454.27388 
  296000    294.11638   -4704.3453            0   -4003.8579    491.58775 
  297000    277.36591   -4824.4121            0   -4163.8188    1123.4631 
  298000    308.17282   -4755.1078            0   -4021.1427    320.18986 
  299000     290.1539   -4777.5519            0   -4086.5019   -842.64164 
  300000    301.62824   -4786.1035            0   -4067.7254   -585.16954 
  301000    286.95437   -4797.0929            0   -4113.6631    1644.3303 
  302000    305.56003   -4783.6536            0   -4055.9113    43.373806 
  303000    295.58602   -4790.6158            0   -4086.6283   -279.53085 
  304000    310.97115   -4800.9798            0     -4060.35    -43.56124 
  305000    283.14975   -4761.8562            0   -4087.4877    725.51245 
  306000    293.73228   -4770.1465            0    -4070.574    325.14994 
  307000      295.867   -4784.3869            0   -4079.7302   -24.296795 
  308000    296.47162   -4748.3138            0   -4042.2171    268.89343 
  309000    298.37515   -4793.5495            0   -4082.9191    1297.1432 
  310000    287.35778   -4750.0735            0   -4065.6829    1184.6236 
  311000    299.84861   -4747.5027            0    -4033.363    528.93879 
  312000    289.81593    -4831.134            0   -4140.8889   -591.43731 
  313000    296.93051   -4751.0271            0   -4043.8374   -206.03914 
  314000     287.7679   -4745.5263            0   -4060.1589    -484.5752 
  315000    285.91667   -4790.7333            0   -4109.7749   -4.4565125 
  316000    297.06421   -4784.6071            0   -4077.0991   -160.92866 
  317000    305.01248   -4807.6215            0   -4081.1833   -888.85792 
  318000    289.57605   -4793.4903            0   -4103.8165   -1582.8878 
  319000    287.06902   -4835.7742            0   -4152.0713    800.80994 
  320000    296.92163    -4787.561            0   -4080.3925    850.77292 
  321000     298.2898   -4817.0465            0   -4106.6195    179.12071 
  322000    295.19721   -4770.3159            0   -4067.2544    1275.0995 
  323000    286.12255   -4802.6552            0   -4121.2065   -46.932827 
  324000    301.05293   -4858.4909            0   -4141.4829    1268.4114 
  325000    306.10582   -4829.6205            0   -4100.5783     -689.813 
  326000    312.87173   -4831.2222            0   -4086.0659    114.60076 
  327000    289.62865   -4850.1255            0   -4160.3265    974.76622 
  328000    305.49009   -4784.9172            0   -4057.3414   -109.44596 
  329000    294.50299    -4775.246            0   -4073.8379    654.75411 
  330000    297.65168   -4786.8247            0   -4077.9174   -138.16246 
  331000    294.27275   -4800.2415            0   -4099.3817    -276.1525 
  332000    283.87855   -4785.3186            0   -4109.2144   -379.10113 
  333000    304.22203   -4761.4109            0   -4036.8553    840.52155 
  334000    304.04382   -4780.5433            0   -4056.4121   -273.88592 
  335000    287.52252   -4775.5096            0   -4090.7267    475.33566 
  336000    296.82993   -4801.2083            0   -4094.2582   -977.57722 
  337000    291.68651   -4782.7038            0   -4088.0036    1485.7662 
  338000    284.51231   -4781.3258            0   -4103.7122    1041.2692 
  339000     296.0468   -4805.4942            0   -4100.4092   -434.83639 
  340000    291.13413   -4804.2502            0   -4110.8656   -196.31687 
  341000    296.61985   -4797.3893            0   -4090.9395    470.44986 
  342000    301.11261   -4775.1739            0   -4058.0239    747.69396 
  343000    292.02701   -4761.2771            0   -4065.7659   -353.92504 
  344000    295.45242   -4875.2684            0    -4171.599    1020.2713 
  345000    298.42708    -4808.318            0    -4097.564    140.43326 
  346000    278.40646   -4772.7148            0   -4109.6432    132.68952 
  347000     290.1972   -4767.3083            0   -4076.1552    299.27181 
  348000    279.97897   -4763.3835            0   -4096.5667    358.91418 
  349000    284.12069   -4781.1204            0   -4104.4394    -65.41482 
  350000    303.11342   -4801.5659            0   -4079.6506    1685.9058 
  351000    293.05942   -4781.0868            0   -4083.1168     815.0589 
  352000    290.84177   -4771.4653            0   -4078.7769   -130.65426 
  353000    279.28596   -4812.0764            0   -4146.9102    1347.2638 
  354000      289.342   -4775.4297            0   -4086.3134   -199.33593 
  355000    282.90825   -4775.5474            0   -4101.7541    72.495592 
  356000    296.04233   -4844.4948            0   -4139.4205    321.04896 
  357000    292.02179   -4767.0022            0   -4071.5035    778.81216 
  358000    289.93327   -4821.4448            0   -4130.9202    100.00954 
  359000     292.4483   -4787.7578            0   -4091.2432    760.33475 
  360000    286.63467   -4802.1975            0    -4119.529    -399.1764 
  361000    291.33148   -4810.5742            0   -4116.7196    339.71052 
  362000    295.69226    -4766.003            0   -4061.7625   -368.71328 
  363000    300.68781    -4774.883            0   -4058.7447   -14.687244 
  364000    284.38774    -4765.855            0   -4088.5381   -1003.9804 
  365000    296.86447   -4818.2491            0   -4111.2167   -266.88052 
  366000    285.97414   -4742.7202            0   -4061.6249    9.4248817 
  367000    299.27858   -4781.3387            0   -4068.5567    800.22205 
  368000    290.25856   -4776.1131            0   -4084.8138    1330.2794 
  369000     280.8389   -4757.2832            0   -4088.4184    848.65056 
  370000    290.06042   -4831.4944            0    -4140.667    490.29408 
  371000    303.82067   -4804.2782            0   -4080.6785    474.61635 
  372000    299.01682   -4803.3226            0   -4091.1641    1231.4077 
  373000    290.62145   -4759.5139            0   -4067.3503    278.45871 
  374000    287.89641   -4800.9579            0   -4115.2845    69.254089 
  375000    307.44168   -4841.2669            0   -4109.0432    690.61998 
  376000    299.05312   -4789.8605            0   -4077.6155   -211.79162 
  377000    311.54155   -4850.5456            0   -4108.5573    422.46456 
  378000    288.66797   -4790.8571            0    -4103.346   -818.50017 
  379000    314.80231   -4797.4171            0   -4047.6628    1279.2538 
  380000      297.865    -4801.681            0   -4092.2656   -722.51738 
  381000     310.7176   -4780.7725            0   -4040.7466    362.47151 
  382000    297.10713   -4829.9117            0   -4122.3013     754.4716 
  383000    299.03664   -4841.0331            0   -4128.8273   -714.49221 
  384000    303.49506   -4793.6497            0   -4070.8255    915.46414 
  385000    297.91011   -4773.2768            0    -4063.754   -290.37106 
  386000    293.13705   -4767.0636            0   -4068.9087    675.07222 
  387000    293.06406   -4775.0821            0    -4077.101   -219.15519 
  388000    291.96738   -4770.5282            0    -4075.159    1328.4894 
  389000     289.1682    -4808.669            0   -4119.9666   -181.99608 
  390000    283.08363   -4772.4745            0   -4098.2635    227.11876 
  391000    296.57695   -4763.2241            0   -4056.8765    532.67563 
  392000    293.57034   -4753.5506            0   -4054.3637   -659.69927 
  393000    289.48555   -4858.0027            0   -4168.5444    401.06245 
  394000    302.24556   -4810.4281            0   -4090.5798    1307.3848 
  395000     296.6247   -4805.7578            0   -4099.2964   -491.57246 
  396000    302.43924   -4757.6269            0   -4037.3172    163.11664 
  397000    297.36401   -4803.0955            0   -4094.8734   -75.908224 
  398000    297.52316   -4754.6753            0   -4046.0741    -444.7622 
  399000    305.16778   -4798.1823            0   -4071.3742   -368.18694 
  400000    294.27086   -4758.1473            0   -4057.2921    1844.0439 
  401000    286.06699   -4799.7169            0   -4118.4005    -570.8308 
  402000    297.52248   -4794.3992            0   -4085.7996    -1162.574 
  403000    296.40968   -4778.1798            0   -4072.2306    169.66195 
  404000    296.91185   -4759.5313            0   -4052.3861    1040.9068 
  405000    304.09774   -4757.8543            0   -4033.5947    646.14315 
  406000      297.984   -4713.7053            0   -4004.0065    1071.5135 
  407000     298.8668   -4779.0755            0   -4067.2743   -442.62119 
  408000    297.59464   -4785.7805            0   -4077.0091     1036.673 
  409000    305.24526   -4800.3468            0   -4073.3542      431.378 
  410000     280.8585   -4780.3479            0   -4111.4364    153.73477 
  411000    287.61449   -4748.9254            0   -4063.9234    153.84185 
  412000    297.04658   -4794.4433            0   -4086.9772   -169.23518 
  413000    291.98891   -4836.2036            0   -4140.7832    198.45952 
  414000    288.74038   -4786.4259            0   -4098.7424    965.30758 
  415000     290.8485    -4839.098            0   -4146.3937    395.66782 
  416000     275.3907   -4777.2475            0   -4121.3585   -1131.2411 
  417000    299.48666   -4771.4832            0   -4058.2056    1043.1611 
  418000    306.72231    -4758.365            0   -4027.8546   -1175.3949 
  419000    298.54108   -4846.6465            0    -4135.621    -811.9966 
  420000    310.40231   -4705.3696            0   -3966.0946    33.585191 
  421000    305.15102   -4780.2418            0   -4053.4736    424.29612 
  422000    276.86389   -4817.0304            0   -4157.6327   -343.66289 
  423000    290.80684   -4771.5005            0   -4078.8954   -686.81494 
  424000    297.13053   -4782.9836            0   -4075.3175     1138.525 
  425000    294.83117   -4787.3651            0   -4085.1753   -389.84379 
  426000    292.53202   -4794.8592            0   -4098.1453   -477.71641 
  427000    305.30523   -4778.5188            0   -4051.3833   -503.87972 
  428000    305.82159   -4772.6453            0   -4044.2801     473.6575 
  429000    285.27521   -4805.5203            0   -4126.0897   -1.7015572 
  430000    295.61639   -4815.2722            0   -4111.2123    1279.2446 
  431000    295.81622   -4805.9598            0    -4101.424   -809.68515 
  432000    295.22719   -4814.7799            0    -4111.647     580.7298 
  433000    295.87578   -4773.3531            0   -4068.6754   -319.31404 
  434000    293.13733   -4781.0096            0   -4082.8541    112.01969 
  435000    291.27295   -4799.2311            0   -4105.5159   -249.23383 
  436000    308.96488   -4841.3329            0   -4105.4814    725.58898 
  437000    286.88022   -4794.9362            0    -4111.683     697.2656 
  438000    294.00649   -4796.9633            0   -4096.7377    996.35623 
  439000    287.81534   -4759.8572            0   -4074.3769    81.786799 
  440000    292.29172   -4750.3988            0   -4054.2572    954.77278 
  441000    302.04397   -4762.9198            0   -4043.5515     696.4405 
  442000     307.9574   -4796.5993            0   -4063.1472    552.18858 
  443000    294.18192   -4818.4156            0   -4117.7722    427.20536 
  444000    293.76708   -4754.7734            0   -4055.1179    400.41261 
  445000    289.70087   -4797.8914            0   -4107.9204    75.049911 
  446000    296.85012   -4741.4752            0    -4034.477    348.52465 
  447000    283.36394   -4786.4906            0    -4111.612    176.86895 
  448000    292.51768   -4802.3077            0   -4105.6279    388.23327 
  449000    289.35573   -4790.1932            0   -4101.0442   -418.66598 
  450000    303.47478   -4808.0678            0   -4085.2919    770.35057 
  451000    306.26223   -4749.8685            0   -4020.4538    822.07154 
  452000    302.18274   -4839.2737            0    -4119.575    489.49333 
  453000     301.1338   -4722.8009            0   -4005.6004       209.66 
  454000    279.84465   -4795.1485            0   -4128.6517   -442.96457 
  455000    301.28867   -4837.5176            0   -4119.9482   -251.39984 
  456000    302.52998   -4795.8586            0   -4075.3328    891.22326 
  457000    292.77348   -4740.4519            0   -4043.1629    29.195488 
  458000    300.92131   -4790.3721            0   -4073.6777   -971.33783 
  459000      280.778   -4812.4912            0   -4143.7714    14.316442 
  460000     289.0873   -4821.3581            0   -4132.8483    483.66319 
  461000    289.65746   -4822.1226            0    -4132.255   -83.588018 
  462000    290.40002   -4772.6148            0   -4080.9786    751.21001 
  463000    292.11682   -4791.4185            0   -4095.6934   -750.74968 
  464000    286.73456   -4772.0246            0   -4089.1183    591.58528 
  465000    284.08967   -4813.2686            0   -4136.6616     1006.404 
  466000    286.37676   -4812.7818            0   -4130.7277   -1505.7757 
  467000    287.78845   -4731.1499            0   -4045.7336    228.37923 
  468000     289.0035   -4723.7351            0   -4035.4249   -463.96295 
  469000    279.65031   -4764.2593            0   -4098.2253     920.6233 
  470000    312.78116   -4743.8092            0   -3998.8685   -558.13071 
  471000    284.27804   -4829.8635            0   -4152.8078    1407.1338 
  472000     299.3161   -4796.2257            0   -4083.3543   -812.62048 
  473000    287.47644   -4792.0515            0   -4107.3783    440.86776 
  474000    302.45022   -4775.7312            0   -4055.3954    734.67975 
  475000    292.53952   -4818.8522            0   -4122.1204    264.34458 
  476000    300.20269   -4775.5028            0   -4060.5199    -10.57199 
  477000     284.9577   -4803.5489            0   -4124.8745   -355.89333 
  478000    297.42445   -4761.9928            0   -4053.6267   -530.96472 
  479000     290.1682   -4778.4108            0   -4087.3267   -773.20755 
  480000    298.09106   -4747.2822            0   -4037.3285    400.81602 
  481000    290.20847   -4727.4483            0   -4036.2683    295.83288 
  482000    276.63328   -4788.9204            0    -4130.072     339.2208 
  483000    291.07005   -4725.3675            0   -4032.1355   -157.52922 
  484000    306.20107   -4819.3703            0   -4090.1012   -418.57416 
  485000     285.0313   -4798.9539            0   -4120.1042   -800.14693 
  486000    301.08659   -4806.9187            0   -4089.8306    528.91932 
  487000    291.87809   -4828.6334            0   -4133.4769    166.33759 
  488000    292.00186   -4789.3593            0    -4093.908    242.21626 
  489000    283.85535   -4813.4775            0   -4137.4286    886.81921 
  490000     282.9989   -4787.5018            0   -4113.4926     12.41089 
  491000    303.73268   -4828.6726            0   -4105.2824    219.65957 
  492000    294.65138   -4733.8991            0   -4032.1375   -102.24046 
  493000    296.21394   -4861.2526            0   -4155.7695    1116.8914 
  494000    297.10386   -4759.4028            0   -4051.8003    857.33387 
  495000    305.25676   -4806.0729            0   -4079.0528   -9.8508746 
  496000    299.23352   -4746.1001            0   -4033.4254   -471.73685 
  497000    290.27415   -4767.9641            0   -4076.6277     1198.518 
  498000     285.8536   -4764.7903            0   -4083.9821    246.46341 
  499000    288.99844   -4769.7512            0   -4081.4531    219.99408 
  500000    286.51028   -4784.8503            0   -4102.4781    163.43209 
Loop time of 2492.83 on 4 procs for 500000 steps with 1200 atoms

Performance: 34.659 ns/day, 0.692 hours/ns, 200.575 timesteps/s
97.3% CPU use with 4 MPI tasks x no OpenMP threads

MPI task timing breakdown:
Section |  min time  |  avg time  |  max time  |%varavg| %total
---------------------------------------------------------------
Pair    | 1598.3     | 1738.1     | 1897.4     | 285.8 | 69.73
Bond    | 0.36224    | 0.38128    | 0.41904    |   3.8 |  0.02
Kspace  | 296.55     | 456.92     | 598        | 561.9 | 18.33
Neigh   | 159.39     | 159.43     | 159.46     |   0.2 |  6.40
Comm    | 67.377     | 68.682     | 69.734     |  11.6 |  2.76
Output  | 0.12971    | 0.14997    | 0.20277    |   7.9 |  0.01
Modify  | 64.511     | 64.529     | 64.542     |   0.2 |  2.59
Other   |            | 4.606      |            |       |  0.18

Nlocal:    300 ave 303 max 295 min
Histogram: 1 0 0 0 0 1 0 0 0 2
Nghost:    5812.75 ave 5852 max 5794 min
Histogram: 2 0 1 0 0 0 0 0 0 1
Neighs:    115451 ave 125783 max 105718 min
Histogram: 2 0 0 0 0 0 0 0 1 1

Total # of neighbors = 461804
Ave neighs/atom = 384.837
Ave special neighs/atom = 2
Neighbor list builds = 38295
Dangerous builds = 3322
Total wall time: 0:41:32
