LAMMPS (20 Nov 2019)
# LAMMPS input file
# Single PEG in water system
# author : Simon Gravelle
units real
atom_style full
bond_style harmonic
angle_style charmm
dihedral_style charmm
pair_style lj/cut/tip4p/long 1 2 1 1 0.1546 12.0
kspace_style pppm/tip4p 1.0e-5
special_bonds lj 0.0 0.0 0.5
read_data PEG_H2O.data
  orthogonal box = (-10.6312 -10.6312 -10.6312) to (10.6312 10.6312 10.6312)
  1 by 2 by 2 MPI processor grid
  reading atoms ...
  912 atoms
  reading velocities ...
  912 velocities
  scanning bonds ...
  4 = max bonds/atom
  scanning angles ...
  6 = max angles/atom
  scanning dihedrals ...
  6 = max dihedrals/atom
  reading bonds ...
  629 bonds
  reading angles ...
  400 angles
  reading dihedrals ...
  74 dihedrals
  4 = max # of 1-2 neighbors
  6 = max # of 1-3 neighbors
  12 = max # of 1-4 neighbors
  14 = max # of special neighbors
  special bonds CPU = 0.000303572 secs
  read_data CPU = 0.00637389 secs
include PARM.lammps
# Mass

mass 		1 15.9994 # H2O O
mass 		2 1.008 # H2O H
mass 		3 12.011 # CC32A
mass 		4 15.9994 # OC30A
mass 		5 1.008 # HCA2
mass 		6 15.9994 # OC311
mass 		7 1.008 # HCP1

# Pair Coeff

pair_coeff 	1 1 0.185199 3.1589
pair_coeff 	2 2 0.0 0.0
pair_coeff 	3 3 0.056 3.58141
pair_coeff 	4 4 0.100 2.93997
pair_coeff 	5 5 0.035 2.38761
pair_coeff 	6 6 0.192 3.14487
pair_coeff 	7 7 0.046 0.40001

# Bond coeff

bond_coeff 	1 0 0.9572
bond_coeff 	2 222.35 1.5300
bond_coeff 	3 308.79 1.1111
bond_coeff 	4 359.76 1.1415
bond_coeff 	5 427.715 1.1420
bond_coeff 	6 544.635 0.9600

# Angle coeff

angle_coeff 	1 0 104.52 0 0
angle_coeff	2 50.0000 109.0000 0.0000 0.0000
angle_coeff	3 26.5000 110.1000 22.5300 2.179
angle_coeff	4 45.0000 111.5000 0.0000 0.0000
angle_coeff	5 13.0258 109.4000 0.0000 0.0000
angle_coeff	6 35.5000 109.0000 5.4000 1.802
angle_coeff	7 55.0000 108.8900 0.0000 0.0000
angle_coeff	8 75.7000 110.1000 0.0000 0.0000
angle_coeff	9 95.0000 109.7000 0.0000 0.0000

# Dihedral coeff
# weighting factor put to 0, possibly wrong

dihedral_coeff	1 0.57 1 0 0
dihedral_coeff	2 0.29 2 0 0
dihedral_coeff	3 0.43 3 0 0
dihedral_coeff	4 0.59 1 180 0
dihedral_coeff	5 1.16 2 0 0
dihedral_coeff	6 0.12 1 0 0
dihedral_coeff	7 0.42 2 0 0
dihedral_coeff	8 0.29 3 0 0
dihedral_coeff	9 2.87 1 180 0
dihedral_coeff	10 0.03 2 0 0
dihedral_coeff	11 0.23 3 0 0
dihedral_coeff	12 1.36 1 180 0
dihedral_coeff	13 0.16 2 0 0
dihedral_coeff	14 1.01 3 0 0

group H2O type 1 2
846 atoms in group H2O
group PEG type 3 4 5 6 7
66 atoms in group PEG
delete_atoms overlap 1.5 H2O PEG mol yes
PPPM initialization ...
  extracting TIP4P info from pair style
  using 12-bit tables for long-range coulomb (src/kspace.cpp:323)
  G vector (1/distance) = 0.256474
  grid = 16 16 16
  stencil order = 5
  estimated absolute RMS force accuracy = 0.00332799
  estimated relative force accuracy = 1.00221e-05
  using double precision FFTW3
  3d grid and FFT values/proc = 5175 1024
Neighbor list info ...
  update every 1 steps, delay 10 steps, check yes
  max neighbors/atom: 2000, page size: 100000
  master list distance cutoff = 14.3092
  ghost atom cutoff = 14.3092
  binsize = 7.1546, bins = 3 3 3
  2 neighbor lists, perpetual/occasional/extra = 1 1 0
  (1) command delete_atoms, occasional
      attributes: full, newton on
      pair build: full/bin
      stencil: full/bin/3d
      bin: standard
  (2) pair lj/cut/tip4p/long, perpetual
      attributes: half, newton on
      pair build: half/bin/newton
      stencil: half/bin/3d/newton
      bin: standard
WARNING: Ignoring 'compress yes' for molecular system (src/delete_atoms.cpp:125)
Deleted 0 atoms, new total = 912
Deleted 0 bonds, new total = 629
Deleted 0 angles, new total = 400
Deleted 0 dihedrals, new total = 74
fix myshk H2O shake 1.0e-5 200 0 b 1 a 1
  0 = # of size 2 clusters
  0 = # of size 3 clusters
  0 = # of size 4 clusters
  282 = # of frozen angles
  find clusters CPU = 0.000237124 secs
fix mynpt all nvt temp 300 300 100
dump dp1 all xtc 1000 traj.xtc
thermo 1000
run 200000
PPPM initialization ...
  extracting TIP4P info from pair style
  using 12-bit tables for long-range coulomb (src/kspace.cpp:323)
  G vector (1/distance) = 0.256474
  grid = 16 16 16
  stencil order = 5
  estimated absolute RMS force accuracy = 0.00332799
  estimated relative force accuracy = 1.00221e-05
  using double precision FFTW3
  3d grid and FFT values/proc = 5175 1024
Neighbor list info ...
  update every 1 steps, delay 10 steps, check yes
  max neighbors/atom: 2000, page size: 100000
  master list distance cutoff = 14.3092
  ghost atom cutoff = 14.3092
  binsize = 7.1546, bins = 3 3 3
  1 neighbor lists, perpetual/occasional/extra = 1 0 0
  (1) pair lj/cut/tip4p/long, perpetual
      attributes: half, newton on
      pair build: half/bin/newton
      stencil: half/bin/3d/newton
      bin: standard
Per MPI rank memory allocation (min/avg/max) = 13.39 | 13.44 | 13.59 Mbytes
Step Temp E_pair E_mol TotEng Press 
       0      314.458   -2682.8969    96.978799   -1996.3315    555.99657 
    1000    307.61758   -2686.9935     103.9927   -2006.2395   -895.65817 
    2000    283.35352   -2695.7181    95.304848   -2069.1454   -1756.4848 
    3000    300.07674   -2657.4823    100.86452    -1993.995   -691.40563 
    4000    307.28066   -2660.6542    92.315868   -1992.2088   -235.24823 
    5000    288.84282   -2719.8726    95.648235   -2082.6644   -952.70222 
    6000    300.54374   -2693.4668    91.051023   -2038.9175    -987.7296 
    7000    313.92598   -2642.8431    88.803575   -1965.4504   -304.10513 
    8000    323.26633   -2658.6404    96.556207   -1955.9826    110.80047 
    9000    298.70515   -2687.5643    102.21716   -2025.2961    -980.5544 
   10000    313.72065   -2688.5963    91.342879   -2009.0493   -1017.3635 
   11000     296.7759   -2661.6259     93.94972   -2011.2422    128.22627 
   12000    298.90512   -2724.6142    99.889389   -2064.2988    -2225.843 
   13000    306.26499   -2659.6285    100.84182   -1984.5614   -1159.0172 
   14000    313.55549   -2723.8333    95.115861    -2040.823   -523.81805 
   15000    298.57961    -2687.191    91.903196    -2035.472   -525.00569 
   16000    316.09619   -2713.9342    89.404237   -2031.8719   -568.70873 
   17000    295.42877   -2717.7539    93.889605   -2069.9562   -212.42187 
   18000    296.36625   -2743.7928    100.22047   -2087.9065   -515.34504 
   19000    297.12152   -2712.3511    91.970595   -2063.2986    -1162.649 
   20000    304.73129   -2687.6308    104.24069   -2012.0404   -50.573643 
   21000    302.82146   -2699.8235    93.896907   -2038.1577    -1167.188 
   22000    301.97642      -2676.5    104.43855    -2005.877    90.809586 
   23000    300.24438   -2704.1451    93.450813   -2047.7573    344.49569 
   24000    300.17878   -2677.8442    107.25512   -2007.7751   -703.69077 
   25000    301.52255   -2651.5859    94.072241   -1992.1801    130.01139 
   26000      299.609   -2727.1721    105.73751   -2059.6889    244.32608 
   27000     295.8065   -2666.4225    94.814055   -2016.9921   -1194.3312 
   28000    298.68384   -2661.7282    103.73538   -1997.9817    468.14193 
   29000    302.67607   -2667.3013    88.752113   -2011.0528    453.58566 
   30000    289.50382   -2695.8314    95.613012   -2057.4191   -459.57339 
   31000    287.88229    -2702.153    90.131919   -2072.2621   -443.77802 
   32000    310.93061   -2663.8372    91.222174    -1989.642   -977.69536 
   33000    302.06643   -2697.3904    92.203339   -2038.8338    -534.6563 
   34000    301.07574   -2688.4204    93.388013   -2030.5366   -188.19401 
   35000    288.76662   -2686.5536    97.764602   -2047.3719   -523.18832 
   36000    295.81526   -2694.3838    99.415039    -2040.336   -986.51598 
   37000    306.18713   -2674.1074    101.30665   -1998.7215   -340.11866 
   38000    308.33774   -2652.3733    114.14273   -1960.1191    -271.6704 
   39000    306.64385   -2723.6603    104.46772    -2044.257   -1056.9793 
   40000    307.91345   -2693.3432    105.08375   -2010.9435    424.94735 
   41000    291.58673   -2690.1143    100.62352   -2042.7862    846.84235 
   42000    306.28874    -2679.725    102.48717    -2002.968   -1392.2256 
   43000     307.2997    -2686.057    97.768373   -2012.1234   -703.68236 
   44000     297.1238   -2673.6058    86.755241   -2029.7644    824.76106 
   45000     309.5798    -2685.844    104.81344   -2000.5902   -806.21683 
   46000     300.7342   -2705.0239    90.301164   -2050.8673   -842.31095 
   47000    279.33146   -2682.3031    92.463556   -2066.1127   -102.43394 
   48000    312.20273   -2698.0904    101.44806   -2011.2842   -618.57778 
   49000    313.00053   -2709.9265    94.101739   -2028.9708    1008.4287 
   50000    310.08146   -2687.7104    95.171631   -2011.1579    25.207978 
   51000     303.3406   -2733.1462    107.80499   -2056.5989   -1489.8434 
   52000    308.71238   -2715.9879     99.68616   -2037.4878   -119.08707 
   53000     304.4262   -2656.6001    97.124189   -1988.6983    395.12957 
   54000    307.65568   -2690.2796    97.150986   -2016.2959    472.24734 
   55000    286.31756   -2713.0516    100.01536    -2076.211   -1715.1186 
   56000      317.807   -2683.9025    97.273228   -1990.7635    1364.1156 
   57000    287.15184   -2666.2298    84.889198   -2042.9511    292.82469 
   58000     290.4041   -2697.1852    100.14565   -2052.5523    509.25624 
   59000     311.6212   -2682.2138    90.015659   -2007.9303    429.57489 
   60000     311.9675   -2687.4879    101.13879    -2001.432   -1018.0194 
   61000    296.83187   -2672.8457    86.360966   -2029.9459    -255.5916 
   62000     287.1954   -2612.5149    95.655269   -1978.3885    81.928338 
   63000    306.53599     -2722.08    98.238508   -2049.1081    47.401657 
   64000    308.85586   -2700.8425    98.891825   -2022.8677    -50.75257 
   65000    311.14128   -2664.2054    88.912491   -1991.9249    1557.5214 
   66000    303.31589   -2713.7132    96.985224    -2048.032   -755.47176 
   67000    292.12348   -2689.5483    87.938106   -2053.8992    -1252.191 
   68000    288.92878   -2723.5958    88.420013   -2093.4547   -1680.1537 
   69000    292.57378    -2651.873    88.834917   -2014.4828   -109.91673 
   70000    314.03186   -2672.7164    79.949175   -2003.9796    311.45132 
   71000     311.4671   -2675.2739    98.208546   -1993.0865    376.51822 
   72000     298.8738   -2695.3084    93.911339   -2041.0298   -1886.7467 
   73000    299.75001   -2739.9918    104.96149   -2073.0202    266.78073 
   74000    292.61269   -2691.9653     104.1795   -2039.1576   -348.46287 
   75000    296.69738   -2734.8798    100.93957   -2077.6536   -243.97279 
   76000    275.04376   -2692.7435    104.49972   -2072.5561   -1431.9317 
   77000    314.51067    -2690.606    93.697177   -2007.2235   -269.47785 
   78000    298.28636   -2689.5698    105.45626   -2024.8476    68.744738 
   79000     289.9642   -2685.7732    108.10957   -2034.0012   -1523.5384 
   80000    311.09037   -2650.3346    101.21071   -1965.8514    -289.6017 
   81000    298.15039   -2689.4927     107.3535   -2023.1282    101.72608 
   82000    288.40213   -2656.8111    97.596977   -2018.4805    11.027471 
   83000    297.68023   -2704.1218    95.203936   -2050.7884   -561.13006 
   84000    302.80774   -2679.4115    98.011749   -2013.6566   -1778.7247 
   85000    307.58163   -2692.3848      105.129    -2010.562   -857.76045 
   86000    273.24743   -2684.0036    100.98941   -2070.6945    -738.7049 
   87000      285.215   -2690.2948    105.80078    -2049.736   -224.38021 
   88000     278.7757   -2683.8004    90.611145   -2070.5045    -240.4001 
   89000    289.65639   -2722.8556     90.06418   -2089.7061    -1376.412 
   90000    304.35327   -2687.7256    101.53927   -2015.5454   -1115.3565 
   91000    309.01023   -2648.5064     96.82573   -1972.3082   -259.58831 
   92000    294.86542   -2662.0863    96.920499   -2012.3139   -753.20112 
   93000    296.05467   -2679.9723    87.299853   -2037.5908   -1020.9995 
   94000    278.92002   -2673.2564     97.03038   -2053.2706   -1470.0151 
   95000    295.93968   -2677.3594    101.16127   -2021.3321   -1082.9803 
   96000    296.50724   -2697.1019    100.92564   -2040.2461   -1759.1929 
   97000    280.57642   -2678.2069    109.02533   -2043.1205   -1802.5143 
   98000    293.49614   -2686.3839    98.479438   -2037.6199   -850.00097 
   99000    299.63704   -2662.5561    96.316129   -2004.4417    507.63438 
  100000    301.03001   -2737.0959    91.456977   -2081.2288   -131.34779 
  101000    296.81788   -2689.9296    96.767716   -2036.6492   -480.90935 
  102000    294.83719   -2660.7646    106.65944   -2001.3062    489.92072 
  103000    299.38663   -2662.2812    91.149012   -2009.8033   -861.03138 
  104000    300.80879   -2652.2851     103.1312   -1985.1587   -886.04124 
  105000      296.137    -2699.963    105.79883   -2038.9282   -373.07267 
  106000    316.94265   -2705.8505    101.66821   -2009.9371   -640.57337 
  107000    299.07015   -2682.3352    88.248639   -2033.3511   -1611.7579 
  108000    300.26642   -2685.7806    99.335586   -2023.4666   -3630.6129 
  109000    303.14176   -2645.3191    88.127259   -1988.8224    -530.2868 
  110000    283.24938    -2682.504    94.978374   -2056.4529   -1065.6299 
  111000    288.91206   -2696.0081     98.61183   -2055.7065   -1780.3616 
  112000     305.8829   -2660.7618    93.850447   -1993.4025   -710.02241 
  113000    285.06868   -2681.5777     89.03367   -2058.0604   -1347.7876 
  114000    284.33579   -2680.3065    108.49201   -2038.7049   -50.823155 
  115000     287.8313    -2668.173    96.578237   -2031.9313    298.27127 
  116000    299.18358   -2690.0081     94.86057   -2034.1994   -69.623659 
  117000    321.29103   -2677.0081     93.30606    -1981.304   -238.53053 
  118000    310.33526   -2712.7885    91.228769    -2039.703   -27.750402 
  119000    283.36206   -2682.0337    89.532403   -2061.2174    290.62903 
  120000    285.21193   -2656.3853     96.51376   -2025.1193      1517.63 
  121000    314.28348   -2619.7168    94.146824   -1936.3106    658.89447 
  122000    295.01355   -2673.9023    96.180774   -2024.5919    -2091.357 
  123000    298.00118   -2678.3235    98.948844   -2020.6435    -836.8219 
  124000    332.77053   -2718.3459     91.10592   -2003.3187   -441.77348 
  125000     299.6803   -2661.9909    92.112424    -2007.999   -525.74808 
  126000    308.12526   -2634.8271    99.690209   -1957.4238    455.08946 
  127000    306.80361   -2675.1733    94.783204   -2005.1549   -966.02918 
  128000    305.44742    -2729.843    94.113574   -2063.0371    -89.30505 
  129000    286.88198   -2704.4561    94.848228   -2071.7244   -1099.0826 
  130000    298.77602   -2675.0421    102.37267   -2012.4854    -800.8097 
  131000    297.85905   -2686.0925    93.058671   -2034.5691   -1087.8219 
  132000    292.93991   -2657.9941    98.392666   -2010.3597   -1090.5351 
  133000    296.74214   -2647.1633    86.652824   -2004.1399    183.13355 
  134000     300.6738   -2751.6362    95.186418   -2092.7075   -718.04696 
  135000    305.63968   -2668.6773    96.616781   -1999.0076   -32.414262 
  136000    303.49996   -2696.5593    85.839056   -2041.6792    411.93168 
  137000    299.74652   -2661.1084    106.18238   -1992.9224   -963.70301 
  138000    303.14498   -2663.1333    103.26906   -1991.4888   -636.47585 
  139000    295.67272   -2744.3599     105.6083   -2084.3861   -347.21472 
  140000    305.31078   -2682.1113    97.363067    -2012.312   -118.41949 
  141000    289.99426   -2696.3378    102.80519   -2049.8139   -1018.9028 
  142000    309.70944   -2717.3903    111.43793    -2025.269   -273.73095 
  143000    290.85335   -2660.1065    98.057537   -2016.7194   -942.22202 
  144000    279.68956    -2678.529    97.273243   -2056.8575   -2304.3618 
  145000    314.03843   -2675.5932    105.02224    -1981.771   -1728.7925 
  146000    303.70962   -2693.5759    103.86482   -2020.2769     29.34217 
  147000    313.30472   -2716.9184    99.541311   -2029.9529   -328.85615 
  148000    276.79913   -2685.9045    104.10878   -2062.8168   -751.52899 
  149000    277.14764   -2689.2206    90.580391   -2079.0079   -691.03465 
  150000    304.29275   -2673.3031    98.545186   -2004.2305    14.149391 
  151000    301.12235   -2705.9197    98.208451   -2043.1281    23.863946 
  152000    292.72266   -2703.4746    95.652579   -2058.9877   -879.35691 
  153000    311.16302   -2644.0674    105.15614   -1955.5025   -1154.8601 
  154000    280.37775   -2674.2871    95.785441   -2052.8131   -1223.6676 
  155000    303.47563   -2632.5286    99.266782   -1964.2664    384.87707 
  156000     297.0181   -2690.2336    86.357666    -2046.988    136.85488 
  157000    318.52381   -2699.5716    104.97035   -1997.3916   -686.19564 
  158000    306.41477   -2698.3209    85.159567   -2038.6553   -771.76691 
  159000    317.45737   -2663.6528    111.98204   -1956.4606   -1066.5122 
  160000    319.02932   -2767.3957    95.437401   -2073.8008    552.65233 
  161000    311.59181    -2691.424    97.186529   -2010.0248    221.23204 
  162000    304.00913   -2678.4657     97.71412   -2010.7559   -1404.0027 
  163000    298.39732   -2723.7664    97.116277   -2067.1762   -1107.9191 
  164000     280.6252   -2664.6179    106.67688   -2031.7886   -204.88128 
  165000    309.58441   -2692.5712    105.43614   -2006.6861   -642.08891 
  166000    288.17186   -2723.6363     89.22188   -2094.1125   -1102.5754 
  167000    299.27445   -2711.8883    109.33642   -2041.4334   -1583.7451 
  168000    297.06901   -2666.9249    94.894773   -2015.0467   -475.76969 
  169000    307.72492   -2738.9752    99.006423   -2063.0062    -22.09428 
  170000    303.79228   -2659.2989    92.156419   -1997.5534    327.04776 
  171000    295.47389   -2647.1378    89.733565   -2003.4115    83.138996 
  172000    314.52424   -2701.5684      103.207   -2008.6507   -1496.8701 
  173000    299.19959   -2705.1963    93.519374   -2050.6988   -350.42283 
  174000    298.63033   -2660.2402    89.271472   -2011.0579    -640.6007 
  175000    313.11825    -2656.735    98.304898   -1971.3555    53.954135 
  176000    302.89957   -2717.0284    89.800791   -2059.3123   -905.56053 
  177000    293.98712   -2662.1978    96.722732   -2014.2699    912.58975 
  178000    302.04773   -2695.4872    86.394085   -2042.7749   -161.69703 
  179000    302.75675   -2666.6339    91.939673   -2007.0466   -268.34613 
  180000    291.15832   -2666.4847     104.4687   -2016.1146   -588.73335 
  181000    287.99747   -2769.0718    89.203716   -2139.8931    -195.1093 
  182000     314.2076     -2695.66    96.810777   -2009.7321    321.49269 
  183000    303.08171   -2720.4973    91.537921   -2060.7025    495.35901 
  184000    277.72652   -2723.6501    104.21209   -2098.7204   -1957.9201 
  185000    302.57067   -2700.3346    92.282599   -2040.7533   -1995.6595 
  186000    313.26982   -2704.8622    96.803797   -2020.6996    111.13632 
  187000     291.3187   -2643.3271    90.671891   -2006.4532    1010.4479 
  188000    300.81428   -2676.1089    97.371924   -2014.7314    -259.1754 
  189000    308.57217    -2624.833     96.79078   -1949.4911   -480.33995 
  190000    322.51223   -2677.3857    91.735352   -1980.9626   -1466.6713 
  191000    293.05378   -2615.3773    77.477804   -1988.4443   -1247.2855 
  192000    306.07804   -2676.8693    90.019439   -2012.9751    696.36365 
  193000    295.99523   -2650.3565     83.10468   -2012.2817    572.47875 
  194000    299.07298   -2675.6871    87.594292   -2027.3521   -74.198696 
  195000    309.50501   -2701.6889    91.283365   -2030.1055   -919.96672 
  196000    296.36711   -2668.5449    82.233506    -2030.644    1022.1786 
  197000    306.09536   -2676.3609    87.919386   -2014.5343   -264.60021 
  198000    303.48406   -2674.7736     94.18351   -2011.5789   -315.26195 
  199000    304.89401    -2688.032    99.748264    -2016.629   -1519.0177 
  200000     300.5978   -2669.2832    91.881969   -2013.8016   -179.33086 
Loop time of 1587.05 on 4 procs for 200000 steps with 912 atoms

Performance: 10.888 ns/day, 2.204 hours/ns, 126.020 timesteps/s
97.0% CPU use with 4 MPI tasks x no OpenMP threads

MPI task timing breakdown:
Section |  min time  |  avg time  |  max time  |%varavg| %total
---------------------------------------------------------------
Pair    | 1180       | 1199.7     | 1230.4     |  55.8 | 75.59
Bond    | 0.61897    | 1.6635     | 3.5343     |  89.1 |  0.10
Kspace  | 206.04     | 238.92     | 259.86     | 133.5 | 15.05
Neigh   | 55.144     | 55.152     | 55.162     |   0.1 |  3.48
Comm    | 49.048     | 49.332     | 49.791     |   4.0 |  3.11
Output  | 0.055783   | 0.056618   | 0.059045   |   0.6 |  0.00
Modify  | 38.72      | 38.8       | 38.87      |   1.1 |  2.44
Other   |            | 3.437      |            |       |  0.22

Nlocal:    228 ave 241 max 217 min
Histogram: 1 0 0 1 1 0 0 0 0 1
Nghost:    7072.5 ave 7116 max 7025 min
Histogram: 1 0 1 0 0 0 0 0 1 1
Neighs:    132634 ave 140455 max 124513 min
Histogram: 1 0 1 0 0 0 0 0 1 1

Total # of neighbors = 530536
Ave neighs/atom = 581.728
Ave special neighs/atom = 2.55263
Neighbor list builds = 8187
Dangerous builds = 0
Total wall time: 0:26:27
